9
Lattice="4.997699999999999 0.0 0.0 -2.4988499999999996 4.328135160493489 0.0 0.0 0.0 5.460099999999999" Properties=species:S:1:pos:R:3:spacegroup_kinds:I:1:forces:R:3 spacegroup="P 64 2 2" unit_cell=conventional occupancy="_JSON {\"0\": {\"Si\": 1.0}, \"1\": {\"O\": 1.0}}" energy=-36.641952484846115 free_energy=-36.641952484846115 stress="-0.059249742806293575 -1.2446727159686661e-08 4.3569330958709295e-08 -1.2446727159686661e-08 -0.059249797783906474 -1.3900731164179442e-08 4.3569330958709295e-08 -1.3900731164179442e-08 -0.06712600095585579" pbc="T T T"
Si       2.49885000       0.00000000       2.73005000        0      -0.00000079      -0.00000063      -0.00000110
Si      -1.24942500       2.16406758       4.55008333        0       0.00000560      -0.00000083       0.00000281
Si       1.24942500       2.16406758       0.91001667        0      -0.00000096      -0.00000019       0.00000188
O       -0.00000000       1.74198236       0.00000000        1      -0.00000536       0.00088971      -0.00000483
O        0.99024902       3.45714398       1.82003333        1      -0.00076871      -0.00044418      -0.00000009
O       -0.99024902       3.45714398       3.64006667        1       0.00076965      -0.00044540       0.00000112
O        2.49885000       2.58615280       0.00000000        1       0.00000006      -0.00088909      -0.00000070
O        1.50860098       0.87099118       1.82003333        1       0.00076958       0.00044510      -0.00000066
O        3.48909902       0.87099118       3.64006667        1      -0.00076908       0.00044557       0.00000163
