9
Lattice="4.9977 0.0 0.0 -2.498849999999999 4.328135160493489 0.0 0.0 0.0 5.4601" Properties=species:S:1:pos:R:3:spacegroup_kinds:I:1 spacegroup="P 64 2 2" unit_cell=conventional occupancy="_JSON {\"0\": {\"Si\": 1.0}, \"1\": {\"O\": 1.0}}" pbc="T T T"
Si       2.49885000       0.00000000       2.73005000        0
Si      -1.24942500       2.16406758       4.55008333        0
Si       1.24942500       2.16406758       0.91001667        0
O        0.00000000       1.79357921       0.00000000        1
O        0.94556484       3.43134556       1.82003333        1
O       -0.94556484       3.43134556       3.64006667        1
O        2.49885000       2.53455595       0.00000000        1
O        1.55328516       0.89678961       1.82003333        1
O        3.44441484       0.89678961       3.64006667        1
