12
Lattice="5.052 0.0 0.0 -2.5259999999999985 4.375160339918984 0.0 0.0 0.0 8.27" Properties=species:S:1:pos:R:3:spacegroup_kinds:I:1 spacegroup="P 63/m m c" unit_cell=conventional occupancy="_JSON {\"0\": {\"O\": 1.0}, \"1\": {\"Si\": 1.0}, \"2\": {\"O\": 1.0}}" pbc="T T T"
O       -0.00000000       2.91677356       2.06750000        0
O        2.52600000       1.45838678       6.20250000        0
Si      -0.00000000       2.91677356       0.51274000        1
Si       2.52600000       1.45838678       4.64774000        1
Si       2.52600000       1.45838678       7.75726000        1
Si      -0.00000000       2.91677356       3.62226000        1
O        2.52600000       0.00000000       0.00000000        2
O       -1.26300000       2.18758017       0.00000000        2
O        1.26300000       2.18758017       0.00000000        2
O        2.52600000       0.00000000       4.13500000        2
O       -1.26300000       2.18758017       4.13500000        2
O        1.26300000       2.18758017       4.13500000        2
