12
Lattice="5.290544094421073 -1.516199991662024e-17 0.0 -2.6452720472105367 4.581745585610396 0.0 0.0 0.0 8.660490827565866" Properties=species:S:1:pos:R:3:spacegroup_kinds:I:1:forces:R:3 spacegroup="P 63/m m c" unit_cell=conventional occupancy="_JSON {\"0\": {\"O\": 1.0}, \"1\": {\"Si\": 1.0}, \"2\": {\"O\": 1.0}}" energy=-49.28241974115372 free_energy=-49.28241974115372 stress="-0.000665050073494652 -1.1120304369075415e-09 2.430578402095451e-09 -1.1120304369075415e-09 -0.0006649949725153091 1.1738893717429507e-08 2.430578402095451e-09 1.1738893717429507e-08 0.0013581078450854414" pbc="T T T"
O       -0.00000000       3.05449706       2.16512271        0       0.00000019       0.00000072      -0.00001294
O        2.64527205       1.52724853       6.49536812        0       0.00000006      -0.00000014       0.00000596
Si      -0.00000000       3.05449706       0.54340251        1       0.00000184       0.00000308      -0.00085014
Si       2.64527205       1.52724853       4.87364793        1       0.00000034      -0.00000059      -0.00085063
Si       2.64527205       1.52724853       8.11708831        1       0.00000138       0.00000201       0.00085102
Si      -0.00000000       3.05449706       3.78684290        1      -0.00000082       0.00000508       0.00086547
O        2.64527205       0.00000000       0.00000000        2      -0.00000001       0.00000026       0.00000020
O       -1.32263602       2.29087279       0.00000000        2      -0.00000669      -0.00000400      -0.00000314
O        1.32263602       2.29087279       0.00000000        2       0.00000330      -0.00000187      -0.00000121
O        2.64527205       0.00000000       4.33024541        2       0.00000004      -0.00000440      -0.00000294
O       -1.32263602       2.29087279       4.33024541        2      -0.00000040      -0.00000016      -0.00000094
O        1.32263602       2.29087279       4.33024541        2       0.00000078      -0.00000027      -0.00000080
