9
Lattice="5.1158317060041405 7.050718178775764e-18 0.0 -2.5579158530020702 4.430440218885466 0.0 0.0 0.0 5.589161553905415" Properties=species:S:1:pos:R:3:spacegroup_kinds:I:1:forces:R:3 spacegroup="P 64 2 2" unit_cell=conventional occupancy="_JSON {\"0\": {\"Si\": 1.0}, \"1\": {\"O\": 1.0}}" energy=-36.89556649327278 free_energy=-36.89556649327278 stress="0.00017848473848751793 4.086686743550701e-08 -1.2751480827753733e-08 4.086686743550701e-08 0.0001784547606603768 -1.1436960265581314e-09 -1.2751480827753733e-08 -1.1436960265581314e-09 -0.0004979186611115153" pbc="T T T"
Si       2.55791585       0.00000000       2.79458078        0      -0.00000020      -0.00001043       0.00000208
Si      -1.27895793       2.21522011       4.65763463        0       0.00000407      -0.00000428      -0.00000723
Si       1.27895793       2.21522011       0.93152693        0      -0.00000143      -0.00000319      -0.00000520
O       -0.00000000       1.83458600      -0.00000000        1       0.00000161       0.00086070       0.00000105
O        0.96911777       3.51314722       1.86305385        1      -0.00074858      -0.00042271       0.00000520
O       -0.96911777       3.51314722       3.72610770        1       0.00074834      -0.00042640      -0.00000329
O        2.55791585       2.59585422      -0.00000000        1      -0.00000550      -0.00086069       0.00000446
O        1.58879808       0.91729300       1.86305385        1       0.00074525       0.00043122      -0.00000095
O        3.52703362       0.91729300       3.72610770        1      -0.00074352       0.00043585       0.00000408
