12
Lattice="5.052 0.0 0.0 -2.526 4.375160339918983 0.0 0.0 0.0 8.27" Properties=species:S:1:pos:R:3:spacegroup_kinds:I:1:forces:R:3 spacegroup="P 63/m m c" unit_cell=conventional occupancy="_JSON {\"0\": {\"O\": 1.0}, \"1\": {\"Si\": 1.0}, \"2\": {\"O\": 1.0}}" energy=-47.32384330034256 free_energy=-47.32384330034256 stress="-0.15955297446222103 -5.180760018989099e-09 -2.168257299454192e-09 -5.180760018989099e-09 -0.15955300114346685 -2.4325385490869385e-09 -2.168257299454192e-09 -2.4325385490869385e-09 -0.15456040585801736" pbc="T T T"
O       -0.00000000       2.91677356       2.06750000        0       0.00000002      -0.00000010      -0.00001753
O        2.52600000       1.45838678       6.20250000        0       0.00000002      -0.00000008       0.00003261
Si      -0.00000000       2.91677356       0.51858535        1       0.00000071      -0.00000369      -0.00009884
Si       2.52600000       1.45838678       4.65358535        1       0.00000018      -0.00000089      -0.00011744
Si       2.52600000       1.45838678       7.75141465        1      -0.00000037      -0.00000236       0.00009322
Si      -0.00000000       2.91677356       3.61641465        1       0.00000035      -0.00000225       0.00012426
O        2.52600000       0.00000000       0.00000000        2       0.00000001       0.00000690      -0.00000366
O       -1.26300000       2.18758017       0.00000000        2      -0.00000053      -0.00000065      -0.00000141
O        1.26300000       2.18758017       0.00000000        2       0.00000024      -0.00000025      -0.00000106
O        2.52600000       0.00000000       4.13500000        2       0.00000012      -0.00000313      -0.00000243
O       -1.26300000       2.18758017       4.13500000        2       0.00000533       0.00000289      -0.00000383
O        1.26300000       2.18758017       4.13500000        2      -0.00000603       0.00000343      -0.00000401
