1
Lattice="-1.770122757410177 1.770122756519941 1.7701227593740703 1.7701227564745086 -1.7701227500476473 1.770122751966109 1.7701227532316355 1.7701227458691051 -1.7701227529017762" Properties=species:S:1:pos:R:3:forces:R:3 energy=-7.042352735996246 free_energy=-7.042352735996246 stress="-4.831840350167558e-05 6.270501995895652e-09 -9.783793946866994e-09 6.270501995895652e-09 -4.832537589442403e-05 7.891412148845776e-09 -9.783793946866994e-09 7.891412148845776e-09 -4.832058749452357e-05" pbc="T T T"
Hf      -0.00000000       0.00000000      -0.00000000       0.00000000      -0.00000001       0.00000000
