192
Lattice="13.99805143 0.0 0.0 0.0 13.99805143 0.0 0.0 0.0 13.99805143" Properties=species:S:1:pos:R:3:forces:R:3 stress="-0.029984422052053455 -0.004321995409309122 -0.013320541395332288 -0.004321995409309122 -0.017108045170646395 -0.00323000593868109 -0.013320541395332288 -0.00323000593868109 -0.028609455040676128" free_energy=-1492.77847857 energy=-1492.77847857 pbc="T T T"
Si       2.01539000       1.60252000       1.82565000      -0.37272200       0.85500700      -1.26407600
Si       3.29504000      13.70369000       4.02444000       3.27767200       0.05804500      -4.82418600
Si       2.03105000       5.76164000       4.87833000       3.25574900       1.04990700       2.39853300
Si       3.44902000       3.39195000      13.95026000      -0.52546700       3.62997700      -2.31385300
Si       5.17263000       2.00407000       4.95394000      -0.62085100       4.08346900      -2.15986100
Si       0.04915000       0.11571000       0.18242000       3.42475800      -4.07561700      -4.39405000
Si       5.74864000       5.13087000       1.26128000      -3.09561900      -0.80224400      -0.83844100
Si       0.30559000       3.59893000       3.56639000      -1.31458200       2.29654500       4.28969700
Si       1.53838000       1.71623000       8.59654000       6.90340300       0.42649300      -0.31291100
Si       3.34722000      13.70131000      10.27827000      -1.15936900       0.71146800      -4.11800000
Si       1.44580000       5.48414000      12.65862000       0.39728400      -4.54157400       0.02999000
Si       3.11018000       3.63168000       6.79261000      -5.05930600      -6.26426000      -8.84545200
Si       4.76608000       1.72117000      11.97448000       0.12040300       3.66697000       2.01507400
Si      13.45382000      13.94791000       7.35931000      -3.31083800      -1.83550000       0.06992400
Si       4.75325000       4.93368000       8.53881000       4.84992900       1.06130600       3.23579700
Si      13.98043000       3.70967000      10.50572000      -1.06504300      -1.18228500      -0.52370400
Si       1.89974000       8.88800000       1.47253000      -1.50620900      -4.09901100       2.73364800
Si       4.11135000       6.97375000       2.78406000      -0.99068900       2.54236300       5.07191200
Si       1.64972000      12.33139000       6.05935000       2.56555300      -2.58861100      -2.37935100
Si       3.47878000      10.73554000      13.84313000       1.94144500      -0.32571500      -4.89889200
Si       5.61076000       8.93382000       4.81927000      -1.58435300       4.17367200       2.89493600
Si      13.50930000       7.24036000       0.18921000      -0.38500500      -2.42336400       0.87412500
Si       4.78250000      12.18344000       2.08472000       8.26827800       4.64074400      -2.93300900
Si       0.38398000      10.60575000       3.62031000       4.64419500      -0.75701800       2.79403000
Si       2.23859000       8.89714000       8.75074000       2.20206700      -3.80874000      -0.38729900
Si       3.52964000       6.75639000      10.69550000      -2.05407300      -2.60481900      -0.65762800
Si       1.44057000      12.16497000      12.19839000      -0.31187600       1.83371900      -0.53526600
Si       4.01846000      10.58092000       6.83465000      -4.80053900      -3.45029300       0.57371000
Si       5.41586000       8.73888000      12.07159000      -0.37621000       2.43816100       0.56130900
Si       0.36377000       7.27629000       6.83988000      -0.01471800      -2.62231300      -0.68520100
Si       5.21511000      12.22995000       8.90219000       0.37440200       2.71520800      -4.95627400
Si       0.12729000      10.11366000      10.43773000      -3.47753600       2.49102000       3.50132900
Si       8.82156000       1.61773000       1.70216000      -2.53993000       3.00903800       0.71579700
Si      10.64069000       0.25027000       3.51458000       2.31329900      -4.78294700       0.66376400
Si       8.61111000       5.24268000       5.79226000       1.03215000      -2.28779800      -1.30584500
Si      10.65926000       3.02929000      13.79552000       3.88177300       5.48527300      -0.63712000
Si      12.29151000       2.02137000       5.29813000       1.52682500      -0.23811000       0.62578800
Si       6.30513000       0.26739000       0.42033000      -0.32370200       0.39363100      -0.27710400
Si      12.18596000       4.85409000       1.89045000       1.20254400       2.53937300      -2.79170800
Si       7.31405000       3.65112000       3.32179000       0.18745700       3.80352400       2.58817100
Si       8.51882000       1.50422000       9.06576000       2.65302600       1.59816100       2.64447300
Si      10.15276000      13.45012000      10.81168000       2.24328000      -0.00256600       1.76583700
Si       9.24814000       4.98497000      11.70411000      -2.90898900      -1.06985000       3.24470500
Si      10.22117000       3.47167000       7.21986000      -1.08188700      -2.55772700       3.34239100
Si      12.31106000       1.42352000      11.96668000       1.51522300      -0.64915000       0.81186100
Si       6.73539000       0.50130000       6.95538000       0.59735200      -2.68488200       3.11703500
Si      12.28193000       5.53047000       8.48997000       1.23536300       1.15973200       1.05599900
Si       6.83277000       3.35314000      10.41529000      -0.61882000       2.93167500      -1.25438000
Si       9.11989000       8.47765000       1.79941000      -4.13311900       1.72161900      -2.85893200
Si      10.55657000       6.57086000       3.64031000       4.71609000      -1.11525900      -0.74552500
Si       8.70378000      12.67128000       5.27817000      -0.99615400      -5.26579600       1.26595200
Si      10.67443000      10.60227000       0.21587000      -2.68093600      -2.92592100      -4.01459500
Si      12.42495000       8.63186000       5.02858000      -0.42327400      -1.66812900      -1.77616600
Si       7.43667000       6.87625000      13.55509000       2.39533900       3.97415900      -0.09636000
Si      12.65202000      12.31836000       1.94499000      -4.45667400       3.33528500       1.20821700
Si       7.40846000      10.84158000       3.09973000       1.11451800      -0.28350800       2.09966500
Si       8.26798000       8.96014000       8.77435000      -0.19535100      -3.58440100       0.72878300
Si      10.52916000       7.18603000      10.44937000      -1.85108200       0.96557300      -6.67830100
Si       8.51815000      12.35965000      12.83373000      -2.08008300       0.03051000      -0.11929500
Si      10.10966000       9.95911000       6.83300000      -1.97046200       0.49186700      -1.12260000
Si      12.10309000       8.82110000      12.23228000      -1.87755400       1.94552200       1.79641100
Si       6.65900000       7.10701000       7.23463000      -3.33709000       2.38675200       1.92708300
Si      11.77633000      11.57416000       8.94783000      -2.34810600       3.40441000      -1.21062300
Si       7.21802000      10.91886000      10.50882000      -4.77436700      -1.72099900       0.70756100
O        6.11626000       6.35730000       0.21446000      -1.64563900      -2.57433500       2.67890900
O        2.63086000       0.59104000       2.84972000      -1.27724400      -1.47249700       0.70862900
O        1.42293000       0.80074000       0.49427000       0.99184200       2.05362600       3.37037900
O        4.55332000       5.48191000       2.49697000       2.73217800      -0.23307100      -3.64735500
O        6.01436000       2.92753000       3.65814000      -4.74076200      -3.81671100       3.84569500
O        2.48112000       4.99842000       6.44539000      -1.73125600       3.12361300      -3.25427300
O        1.46200000       4.67649000       3.91898000      -0.25928200      -0.54169500      -0.17879600
O        4.07979000       3.07146000       5.51356000      -1.13510900       0.47781000      -0.00507300
O        3.30122000       6.54403000       4.16045000      -1.88992000      -0.45709100       0.73351800
O        6.02836000       1.70297000       6.23985000       0.22731800       0.36378800      -0.32815100
O        4.48101000       0.72425000       4.35252000       1.25123600      -1.06515100      -0.03966400
O        1.13109000       6.93814000       5.45087000      -1.14134900      -0.44466900      -0.67405000
O        3.16955000       2.45254000       1.16224000       0.97749000      -0.43293100       1.25528400
O        6.97297000       4.60620000       2.11705000       0.03983900       1.67536400      -2.56678100
O        4.93860000       4.13865000       0.19619000      -0.48236300      -0.06713400       0.91845600
O        1.12675000       2.79096000       2.56517000       0.35109100      -3.92734000      -2.74549900
O        5.44860000       6.21330000       7.83317000      -2.07644400      -1.24716700      -0.82216400
O        2.97162000       0.52558000       8.81139000      -2.42250300       1.98391200       2.55330700
O        0.33060000       0.91243000       8.19639000      -3.65871500      -0.32905300       1.21146400
O        3.75980000       5.47429000       9.70961000       1.52234200      -0.75865600       0.11645800
O        5.57093000       2.92696000      11.26851000      -1.39983700       0.90815900       0.74361100
O        2.08520000       4.45575000      13.78932000       1.68022900      -0.18460800       1.52898600
O        0.76256000       4.22276000      11.77617000       0.27719000       1.50974600       0.00565200
O        3.47478000       2.68733000      12.48769000       0.32421700      -1.80897300      -0.15977400
O        2.77819000       6.06978000      11.99358000      -0.31407700       1.62056300      -0.59475300
O        5.59146000       1.36089000      13.31003000       1.35914100      -1.84556800       2.46011700
O        4.48759000       0.41775000      11.15096000      -0.14749000      -1.14585900      -0.85358000
O        0.13534000       6.26665000      13.11019000       1.14471300      -0.27301400      -1.86308200
O        2.08526000       2.32883000       7.17775000       0.27071700       1.86925300      -0.48507900
O        6.31959000       4.00514000       8.96035000      -1.55886600       1.46618700       1.46406600
O        3.96252000       3.74631000       7.93162000       5.58133700      -0.11334200       7.37185200
O        1.22277000       2.79374000       9.73640000      -1.48067200       1.20041500       0.61903500
O        5.16012000      13.81893000       1.57436000       0.20527800      -0.72412400      -1.39077500
O        3.34082000       8.06549000       1.88073000      -1.50567000       0.10674700      -1.22773300
O        0.66303000       7.85315000       0.98042000       5.16899900       3.11467600       2.10832300
O        3.85937000      12.17032000       3.24404000      -4.95106800       2.08292900       5.49779700
O        6.69438000      10.04454000       4.37834000       0.74371800       0.33463100      -0.37625000
O        2.83850000      11.58480000       6.74839000      -2.01739200       0.91750900       1.65771400
O        1.31417000      11.20090000       4.92458000      -2.69917600      -0.33721700      -2.17349700
O        4.25814000       9.95233000       5.47452000       2.77732100      -3.62177900      -4.79842300
O        2.56500000      13.41681000       5.29110000      -2.84358500       0.78011100       2.40333700
O        6.07625000       8.18872000       6.14585000       1.21658400      -1.61139600       0.89820600
O        5.15281000       8.07049000       3.65769000      -0.97610500      -3.18398500      -4.15926800
O        0.62259000      12.92863000       7.01569000      -1.02866500      -0.89066000      -0.07704300
O        2.30408000       9.84874000       0.32269000      -2.22516300       0.27504300       0.92708400
O        6.40549000      11.93440000       2.53228000      -2.58347400      -0.57505300      -1.26832300
O        4.44574000      11.68316000       0.65360000      -0.72965700      -1.81224000      -0.48458300
O        1.22101000       9.46646000       2.83411000       2.09527500       0.62971500      -1.24314200
O        5.85070000      13.77373000       8.20516000      -0.26192500      -0.47965800      -1.16700000
O        2.61774000       7.59315000       9.72439000      -0.67866600       2.32927100      -0.13484700
O        1.57144000       7.94387000       7.59809000      -0.50379300       1.62788800       1.78189500
O        3.67985000      12.24846000       9.53175000       3.03493300      -0.12046000       0.14792600
O        6.26467000       9.85162000      11.21947000      -1.95247900      -0.45986900      -0.92871500
O        2.87366000      11.64677000      12.65880000       1.45743000      -1.21392800      -0.26101600
O        0.17773000      11.29301000      11.60171000       2.09144300       0.03409600      -0.78140200
O        4.36051000       9.58938000      13.07875000       1.72872200      -1.49731900      -1.26669400
O        2.09297000      13.31201000      11.10430000      -3.78639400      -0.75339300       2.29992900
O        6.65833000       8.10386000      12.76080000       2.71601500      -1.24296900       1.81674500
O        4.76864000       7.49168000      11.26263000       1.55756100       1.68354400       0.52578600
O        0.84114000      12.52335000      13.63324000      -2.10671000       2.77224400       2.01055800
O        3.48589000       9.50085000       7.95744000       0.05654900      -0.15112700       1.22929400
O        6.44892000      12.13807000       9.90089000      -2.13476200       1.29785000      -0.02749100
O        5.12622000      11.39107000       7.37167000       6.87992500       4.18406500       5.80417200
O        1.51775000       9.79829000       9.87956000       1.57679200       0.16189300      -1.88808000
O       12.53026000       6.47649000       1.11804000       0.27631000      -5.26143500       2.15453100
O        9.79746000       0.56441000       2.22972000       1.95760100      -1.93826300       0.17603400
O        7.44558000       0.86026000       1.50615000      -1.72077300      -0.55640500      -2.69148800
O       10.89577000       5.61777000       2.29278000      -5.34422600       0.25654600       4.07407300
O       13.67730000       2.99212000       5.01229000      -1.19783400      -2.11110700      -0.57015900
O        8.72191000       3.84927000       6.77336000       1.25590400       2.70557300      -2.68901700
O        7.88233000       4.71197000       4.46842000      -0.80339300      -0.12236600      -0.55156500
O       11.12285000       2.74626000       6.11852000      -0.06592200       0.08467600      -0.61500400
O       10.10958000       5.84839000       5.06372000      -1.90117800       0.14335200       0.95228700
O       12.63819000       0.64917000       6.16639000       0.66400900       1.11962000      -0.83119600
O       11.57640000       1.42294000       3.97714000       0.95461900       2.14666200      -0.21963100
O        7.69466000       6.02203000       6.83779000       2.19852700       0.32884100      -1.45656300
O        9.55563000       2.58878000       0.68228000      -5.10953300      -1.79136300       2.45774200
O       13.04490000       4.55490000       3.24843000      -0.59950700      -0.48578400      -2.32799800
O       11.88757000       3.59006000       0.88912000      -0.03379300       1.22124600       0.17431200
O        8.36963000       2.69316000       2.86044000       4.56889400      -3.22078600      -0.74943800
O       13.60673000       5.90065000       7.47570000      -1.09843000       1.55225200      -0.08274700
O        9.34693000       0.22898000       9.78262000      -3.62334000       2.60979900      -3.42389600
O        8.04552000       1.26669000       7.59258000      -1.51141300      -1.62912000      -1.15479000
O       11.51467000       6.91345000       9.10108000       1.12081100      -0.52756900      -0.32730100
O       12.72785000       2.65494000      10.95952000       1.00840100      -0.34673300       0.34377700
O       10.09856000       4.14480000      12.76345000       1.45812200      -0.37085000       0.72625800
O        8.17607000       3.93112000      11.19889000      -1.80902100       0.46868000      -0.93941700
O       11.44042000       1.84022000      13.27271000       1.53197800      -2.13933800      -1.96802900
O       10.08383000       5.66116000      10.60943000       0.67525600       0.37509300      -1.59384600
O       13.64370000       0.70713000      12.80980000      -2.51228300       2.40113500      -4.21392300
O       11.31500000       0.39968000      11.29802000       3.59284600       1.67736800      -1.08668700
O        8.40852000       6.17033000      12.50534000       0.05945800      -0.78538700      -0.33137800
O        9.68367000       2.72418000       8.60759000      -0.65037300      -2.46805600       1.66835800
O       13.08946000       4.92041000       9.77095000       1.44613200      -1.38754600       0.64505200
O       11.29021000       4.35092000       8.00213000       1.35509000       2.88467900      -0.32633300
O        7.35471000       1.91325000      10.27519000       4.21639700      -5.28521500      -4.09747300
O       12.81871000      13.67167000       0.97572000      -1.43106600      -1.37110400       3.07136800
O        9.71364000       7.76848000       3.03931000      -0.81101700       0.00725400       2.52428800
O        8.50430000       7.39729000       0.75929000      -1.52366600      -0.78714400      -0.68246900
O       11.76075000      12.96428000       3.21818000      -0.43078100       0.65366500      -0.54823000
O       13.26770000       9.66332000       4.07673000      -4.29306900      -1.40101600       2.13178100
O        9.43157000      11.43758000       6.52951000      -1.97576300       2.19601900      -3.86233100
O        8.56725000      11.92439000       3.77125000      -1.82891400      -2.53115200       0.17319600
O       10.91903000       9.21358000       5.55051000       1.06893500       0.20685200       0.74808700
O        9.73757000      13.63366000       4.70498000       3.03060700       4.05499800       0.22645700
O       13.39428000       8.44202000       6.37059000      -2.85724500       1.12495100      -0.84394900
O       12.23991000       7.20804000       3.80181000      -2.59556100       2.35902800       3.81501400
O        7.40364000      13.42976000       5.89702000       0.07854400      -0.67953700      -0.23881100
O       10.23336000       9.19509000       0.95670000       1.90451000       2.19442600      -0.70117300
O       13.93536000      11.75500000       2.67389000       0.25048700       1.40854200      -1.99563700
O       11.49921000      11.50964000       1.13096000       3.26682000       0.81422200       1.75336100
O        7.80562000       9.66000000       2.02248000       2.18748200      -0.78192500       0.66311300
O       12.26771000      13.05638000       8.07162000      -0.16835800      -2.39034200       1.28503700
O        9.47389000       8.32100000       9.67939000       0.50875300      -1.71174200       2.37345200
O        6.87904000       7.91745000       8.65615000       2.84573400       2.04104400      -0.01072000
O       10.84315000      12.21247000      10.12945000       0.79516800      -2.11422500      -0.59602500
O       13.41954000       8.95136000      11.33311000       0.11827300      -0.98985300      -1.12061700
O        9.32902000      11.44834000      13.84280000      -0.36000200      -0.79744500       1.73432900
O        8.17572000      11.36197000      11.53961000       4.38766000       3.30263200       5.83363300
O       11.24377000      10.20826000      12.63268000       0.77856000      -0.19329100       1.18652500
O        9.64249000      13.36604000      12.33577000      -1.40125600      -0.06331200       0.00473100
O       12.45089000       8.19830000      13.64154000      -0.58771800       3.18690900      -1.10733400
O       10.97858000       7.72660000      11.81746000       0.95778500       0.80237000       0.60863200
O        7.16680000      13.28043000      13.30683000       0.35550300      -0.96655800       1.06579600
O        8.94310000       8.81310000       7.32425000       1.36642600       1.61074500      -2.37819900
O       12.98744000      10.75967000       9.52162000       0.81091900      -0.92054900      -1.38346300
O       10.67312000      10.57665000       8.21704000       3.22013000      -0.53551200       0.94946100
O        7.96361000      10.43065000       9.28534000       2.06478200      -2.07952500      -4.06317900
