24
Lattice="7.166000000000001 0.0 0.0 0.0 7.166000000000001 0.0 0.0 0.0 7.166000000000001" Properties=species:S:1:pos:R:3:spacegroup_kinds:I:1:forces:R:3 spacegroup="F d -3 m" unit_cell=conventional occupancy="_JSON {\"0\": {\"Si\": 1.0}, \"1\": {\"O\": 1.0}}" energy=-95.01081907749176 free_energy=-95.01081907749176 stress="-0.15087876735825306 1.555745744495706e-07 1.7360546616028182e-07 1.555745744495706e-07 -0.1508787631052018 1.5350963961356657e-07 1.7360546616028182e-07 1.5350963961356657e-07 -0.15087876028372094" pbc="T T T"
Si       0.89575000       0.89575000       0.89575000        0      -0.00001195      -0.00001070      -0.00001046
Si       4.47875000       0.89575000       4.47875000        0      -0.00002490      -0.00000402      -0.00002596
Si       0.89575000       4.47875000       4.47875000        0      -0.00000783      -0.00002971      -0.00002193
Si       4.47875000       4.47875000       0.89575000        0      -0.00001909      -0.00002914      -0.00000832
Si       6.27025000       2.68725000       2.68725000        0      -0.00000164       0.00000927       0.00000779
Si       6.27025000       6.27025000       6.27025000        0       0.00000425       0.00000399       0.00000680
Si       2.68725000       2.68725000       6.27025000        0       0.00000798       0.00000842      -0.00000231
Si       2.68725000       6.27025000       2.68725000        0       0.00000824      -0.00000135       0.00000889
O       -0.00000000      -0.00000000      -0.00000000        1       0.00000480       0.00000482       0.00000448
O        5.37450000       1.79150000       3.58300000        1       0.00000541       0.00000401      -0.00000472
O        1.79150000       3.58300000       5.37450000        1       0.00000515      -0.00000583       0.00000667
O        3.58300000       5.37450000       1.79150000        1      -0.00000982       0.00001023       0.00000885
O        1.79150000       5.37450000       3.58300000        1       0.00000858       0.00001013      -0.00000961
O        5.37450000       3.58300000       1.79150000        1       0.00000561      -0.00000517       0.00000439
O        3.58300000       1.79150000       5.37450000        1      -0.00000537       0.00000463       0.00000648
O       -0.00000000       3.58300000       3.58300000        1       0.00000590       0.00000672       0.00000642
O        5.37450000       5.37450000      -0.00000000        1       0.00001503       0.00001523      -0.00001556
O        1.79150000      -0.00000000       1.79150000        1      -0.00000296       0.00000223      -0.00000326
O        1.79150000       1.79150000      -0.00000000        1      -0.00000260      -0.00000290       0.00000203
O        5.37450000      -0.00000000       5.37450000        1       0.00001529      -0.00001556       0.00001504
O        3.58300000      -0.00000000       3.58300000        1       0.00000655       0.00000584       0.00000654
O       -0.00000000       5.37450000       5.37450000        1      -0.00001591       0.00001582       0.00001515
O       -0.00000000       1.79150000       1.79150000        1       0.00000271      -0.00000357      -0.00000349
O        3.58300000       3.58300000      -0.00000000        1       0.00000625       0.00000631       0.00000578
