24
Lattice="7.166 0.0 0.0 0.0 7.166 0.0 0.0 0.0 7.166" Properties=species:S:1:pos:R:3:spacegroup_kinds:I:1 spacegroup="F d -3 m" unit_cell=conventional occupancy="_JSON {\"0\": {\"Si\": 1.0}, \"1\": {\"O\": 1.0}}" pbc="T T T"
Si       0.89575000       0.89575000       0.89575000        0
Si       4.47875000       0.89575000       4.47875000        0
Si       0.89575000       4.47875000       4.47875000        0
Si       4.47875000       4.47875000       0.89575000        0
Si       6.27025000       2.68725000       2.68725000        0
Si       6.27025000       6.27025000       6.27025000        0
Si       2.68725000       2.68725000       6.27025000        0
Si       2.68725000       6.27025000       2.68725000        0
O        0.00000000       0.00000000       0.00000000        1
O        5.37450000       1.79150000       3.58300000        1
O        1.79150000       3.58300000       5.37450000        1
O        3.58300000       5.37450000       1.79150000        1
O        1.79150000       5.37450000       3.58300000        1
O        5.37450000       3.58300000       1.79150000        1
O        3.58300000       1.79150000       5.37450000        1
O        0.00000000       3.58300000       3.58300000        1
O        5.37450000       5.37450000       0.00000000        1
O        1.79150000       0.00000000       1.79150000        1
O        1.79150000       1.79150000       0.00000000        1
O        5.37450000       0.00000000       5.37450000        1
O        3.58300000       0.00000000       3.58300000        1
O        0.00000000       5.37450000       5.37450000        1
O        0.00000000       1.79150000       1.79150000        1
O        3.58300000       3.58300000       0.00000000        1
