243
Lattice="14.51784322 0.0 0.0 7.25892161 12.57282104 0.0 0.0 0.0 15.97543468" Properties=species:S:1:pos:R:3:forces:R:3 energy=-1951.9131007440446 free_energy=-1951.9131007440446 stress="-0.018349184869975596 -0.0009087110804816032 0.002885607876492541 -0.0009087110804816032 -0.01730658823505822 0.0016698000595967177 0.002885607876492541 0.0016698000595967177 -0.020985902411856702" pbc="T T T"
Si      13.22890013       2.24324367       3.54159130      -0.00017919      -0.00029385      -0.00015545
Si       1.12723883       1.87356834       1.77398572      -0.00029478       0.00004559      -0.00006031
Si       9.88019474      12.51561638      15.97239493      -0.00021927       0.00002184       0.00017202
Si      13.31140805       2.25838823       8.80339830       0.00033018       0.00027783      -0.00007797
Si       1.19632518       1.89277888       7.05153049       0.00034455      -0.00007007      -0.00023600
Si       9.94647673      12.52960811       5.30419243      -0.00009652      -0.00020756      -0.00028536
Si      13.19301121       2.25676169      14.14786617      -0.00003510      -0.00012075       0.00042001
Si      15.65009180       1.91086274      12.40882600      -0.00029764       0.00024275       0.00019023
Si       9.92644120      12.56509107      10.64234469       0.00007023       0.00028076       0.00013698
Si      15.64167405       6.44424455       3.55172888      -0.00026775      -0.00004587      -0.00018388
Si      18.05836207       6.03544292       1.79923097      -0.00020077       0.00013689       0.00001546
Si       5.02787407       4.10316272       0.05166115      -0.00020391       0.00012402       0.00022904
Si      15.67593683       6.44046949       8.86655113       0.00027459       0.00019980      -0.00006609
Si      18.10080431       6.08773135       7.10661660       0.00034595      -0.00012049      -0.00023124
Si       5.07902920       4.15685042       5.32974290      -0.00002507      -0.00018696      -0.00026072
Si      15.62541993       6.41045639      14.21220863      -0.00007379       0.00023884       0.00029842
Si       3.51747031       6.07062940      12.43641849      -0.00025419       0.00037112       0.00032047
Si       5.04336486       4.16865256      10.66995890      -0.00006731       0.00038032       0.00012058
Si      18.06658235      10.62401466       3.56168046      -0.00021341      -0.00019692      -0.00019165
Si      20.48586197      10.30041542       1.76820971      -0.00021490      -0.00011494       0.00003500
Si       7.44630456       8.35553551      15.95741925      -0.00005264      -0.00002883       0.00023818
Si      18.06985399      10.66088018       8.93124493       0.00033555       0.00003120      -0.00031998
Si       5.98278210      10.30651555       7.12121706       0.00046633      -0.00031611      -0.00030952
Si       7.45855209       8.36903118       5.33509239       0.00017560      -0.00032901      -0.00027709
Si      18.00972064      10.55833651      14.27524676      -0.00004803       0.00020728       0.00022727
Si      20.24070009      10.69929273      12.44223361      -0.00002055      -0.00034684       0.00034076
Si       7.23538064       8.77852747      10.63670379       0.00034837       0.00007207       0.00003204
Si       3.54349424       2.25330305       3.55173119      -0.00033581      -0.00008702      -0.00015590
Si       5.96017018       1.84450451       1.79922045      -0.00020615       0.00011191       0.00002757
Si      14.70641743      12.48501575       0.05164593      -0.00015086       0.00008726       0.00017318
Si       3.57775473       2.24952840       8.86656016       0.00026288       0.00019669      -0.00009402
Si       6.00261412       1.89678106       7.10661810       0.00036769      -0.00008878      -0.00021190
Si       7.49866142      -0.03411283       5.32972935      -0.00004361      -0.00019373      -0.00028419
Si       3.52724411       2.21951253      14.21220774      -0.00016497       0.00024320       0.00032605
Si       5.93713331       1.87969529      12.43640143      -0.00020243       0.00030581       0.00030316
Si      14.72192640      12.55050750      10.66994227      -0.00000141       0.00032690       0.00019361
Si       5.96837288       6.43308174       3.56168955      -0.00024590      -0.00019330      -0.00017645
Si       8.38763818       6.10945843       1.76820239      -0.00015410      -0.00016895       0.00001638
Si       9.86594179       4.16458072      15.95742716      -0.00001841      -0.00003152       0.00019916
Si       5.97163584       6.46996342       8.93123820       0.00038054       0.00005998      -0.00031316
Si       8.40240736       6.11556839       7.12121682       0.00036943      -0.00030668      -0.00026134
Si       9.87818145       4.17808369       5.33509929       0.00016508      -0.00036461      -0.00027988
Si       5.91150311       6.36741393      14.27524615      -0.00009475       0.00010812       0.00028379
Si       8.14247493       6.50832709      12.44221299       0.00005122      -0.00030609       0.00041066
Si       9.65500365       4.58756520      10.63670800       0.00040964      -0.00005273       0.00013267
Si       8.38960181      10.62513141       3.54159828      -0.00024244      -0.00019876      -0.00013734
Si      10.80577612      10.25542937       1.77398392      -0.00036709       0.00005272      -0.00009440
Si      12.29979248       8.32465845      15.97239169      -0.00021774      -0.00004358       0.00008313
Si       8.47211142      10.64029164       8.80340042       0.00023401       0.00019587      -0.00004169
Si      10.87486559      10.27464639       7.05152543       0.00029463      -0.00011799      -0.00028277
Si      12.36608149       8.33865050       5.30419657      -0.00001063      -0.00020085      -0.00028671
Si       8.35371301      10.63864022      14.14787603      -0.00005256      -0.00007601       0.00041448
Si      10.81077446      10.29272559      12.40881489      -0.00012773       0.00019009       0.00022613
Si      12.34605351       8.37413965      10.64234599       0.00004218       0.00023017       0.00003299
Si       8.38802563       2.24211633       3.56168967      -0.00012761      -0.00024137      -0.00020494
Si      10.80730677       1.91852458       1.76821850      -0.00022627      -0.00013948      -0.00000977
Si      12.28559628      -0.02634570      15.95741850       0.00011467      -0.00003547       0.00025234
Si       8.39130718       2.27897848       8.93123517       0.00037523       0.00004991      -0.00022842
Si      10.82207448       1.92462646       7.12121526       0.00042614      -0.00037782      -0.00022900
Si      19.55676923      12.55996425       5.33508009       0.00023043      -0.00036659      -0.00029939
Si       8.33118408       2.17642569      14.27523622      -0.00011516       0.00013088       0.00025547
Si      10.56215207       2.31740085      12.44222145       0.00006261      -0.00030341       0.00044241
Si      12.07467325       0.39664114      10.63670371       0.00038490      -0.00007182       0.00011632
Si      10.80922983       6.43417618       3.54159420      -0.00025615      -0.00021569      -0.00012394
Si      13.22541070       6.06448526       1.77398870      -0.00027247       0.00009002      -0.00008949
Si      14.71947050       4.13373943      -0.00302971      -0.00023294       0.00006618       0.00004205
Si      10.89174055       6.44932669       8.80340819       0.00030025       0.00027011      -0.00009850
Si      13.29449360       6.08369365       7.05153555       0.00039619      -0.00008159      -0.00024047
Si      14.78574877       4.14772945       5.30420270      -0.00000204      -0.00026776      -0.00025516
Si      10.77334017       6.44767793      14.14786589       0.00000501      -0.00007365       0.00041957
Si      13.23042519       6.10178617      12.40882505      -0.00022288       0.00025036       0.00026143
Si      14.76572085       4.18320651      10.64235047      -0.00001517       0.00039875       0.00012340
Si      13.22204076      10.63515614       3.55173493      -0.00038339      -0.00008904      -0.00020707
Si      15.63871936      10.22636561       1.79923128      -0.00017606       0.00010210       0.00000107
Si      17.12606621       8.29409025       0.05164936      -0.00005191       0.00008585       0.00013799
Si      13.25630555      10.63138831       8.86655654       0.00026003       0.00012955      -0.00013098
Si      15.68116947      10.27865023       7.10663019       0.00043308      -0.00011395      -0.00032072
Si      17.17722620       8.34778286       5.32972260      -0.00012929      -0.00019827      -0.00018761
Si      13.20577390      10.60137094      14.21220892      -0.00008847       0.00014737       0.00023758
Si      15.61567603      10.26155890      12.43642495      -0.00011930       0.00037921       0.00019618
Si      17.14155933       8.35957592      10.66994870      -0.00012275       0.00035491       0.00013586
O        2.03695913       2.46318851       2.98923456      -0.00023757      -0.00005384       0.00006458
O       13.82352598       3.64733791       4.09283206      -0.00027685      -0.00016945       0.00027136
O       15.66088851       2.92815186       0.53521628      -0.00021108       0.00017105      -0.00004714
O       14.13663224       1.65347353       2.32647398      -0.00035298       0.00008212      -0.00008580
O        3.60141640       1.17995118       4.77026220      -0.00017790      -0.00035981      -0.00008902
O        1.69811689       0.45499052       1.23593144      -0.00019543       0.00003943      -0.00013596
O        2.07486551       2.46005511       8.29653944       0.00045155       0.00020557      -0.00014110
O       13.86404010       3.66098723       9.39435623       0.00014646       0.00030083      -0.00024927
O       15.76326132       2.96215488       5.82555011       0.00001106      -0.00038230      -0.00003015
O       14.18694205       1.71281954       7.55372188       0.00018869      -0.00007348       0.00035876
O        3.60622580       1.19853684      10.10643752       0.00004726       0.00037288       0.00019698
O        1.75175875       0.45950118       6.53780700       0.00013266      -0.00004290       0.00029603
O        2.02141087       2.44417053      13.66176364      -0.00031497       0.00018162      -0.00011506
O       13.75454266       3.65322848      14.75553621      -0.00029241      -0.00001225      -0.00007830
O       15.72117470       3.00216103      11.20487700      -0.00009158       0.00034349      -0.00004586
O       14.13194020       1.73604787      12.93233363       0.00011163       0.00009609      -0.00023129
O        3.57289924       1.13474859      15.42236159      -0.00018459       0.00023782      -0.00024583
O        1.68018318       0.49222704      11.83860252      -0.00008630       0.00016867      -0.00018674
O        4.45540467       6.61994213       3.00956773      -0.00012428      -0.00003184       0.00013530
O       16.21333933       7.85416471       4.11340579      -0.00030104      -0.00010854       0.00026647
O       18.08976245       7.09629195       0.56476445      -0.00017945       0.00024968       0.00002679
O       16.54252003       5.85574323       2.33421138      -0.00034714       0.00016485      -0.00002049
O        6.02403135       5.35347831       4.77814647      -0.00010098      -0.00047353      -0.00005464
O        4.07839363       4.59585879       1.27837452      -0.00015865       0.00007842      -0.00004688
O        4.48108196       6.68178875       8.32451261       0.00069910       0.00032999      -0.00017875
O       16.23445461       7.85667656       9.41730718       0.00027702       0.00032110      -0.00001789
O       18.12013766       7.14436603       5.86858869       0.00007334      -0.00051521      -0.00011387
O       16.59239754       5.85947264       7.65580788       0.00037617      -0.00002714       0.00033405
O        5.95412212       5.39563061      10.14605191       0.00001396       0.00042318       0.00016052
O        4.15621957       4.66994884       6.56748882       0.00024295      -0.00005758       0.00032976
O        4.42031198       6.59022559      13.68471976      -0.00034804       0.00020181      -0.00004252
O       16.19447053       7.81704632      14.78282679      -0.00030261       0.00002446      -0.00007731
O       18.09606812       7.17559870      11.24011490       0.00001593       0.00050679       0.00005347
O       16.52113410       5.86087906      12.97188694       0.00007774       0.00029663      -0.00022778
O        5.94715736       5.33565186      15.52427522      -0.00010399       0.00027929      -0.00014785
O        4.06300744       4.65276635      11.87413416      -0.00006820       0.00026843      -0.00019111
O        6.88821766      10.87135895       2.98302777      -0.00021188      -0.00035096       0.00026297
O       18.60406575      12.04785348       4.11904616       0.00001220      -0.00021428       0.00025236
O       20.50985462      11.36703851       0.53910192      -0.00009014       0.00005708       0.00009050
O       18.98437899      10.08006714       2.33549324      -0.00029400      -0.00007576      -0.00011292
O        8.40029168       9.55957874       4.76890006       0.00009991      -0.00062378       0.00002457
O        6.53103296       8.88359811       1.21828507      -0.00010780      -0.00014308      -0.00014095
O        6.94744550      10.87302653       8.30122868       0.00042467       0.00002751       0.00003142
O       18.60246428      12.07068521       9.50886786       0.00087106       0.00010877      -0.00039523
O       20.50208727      11.36429623       5.88589921       0.00026109      -0.00070583       0.00002766
O       19.01653160      10.10327487       7.73327820       0.00022737      -0.00044306       0.00023106
O        8.53194616       9.50210094       9.97204565       0.00022657       0.00050521       0.00038405
O        6.52110451       8.88103086       6.56308180       0.00042524      -0.00028079       0.00029724
O        6.86622301      10.88227634      13.57081439      -0.00043677      -0.00045146      -0.00000115
O       18.57028299      11.99493812      14.77817642      -0.00008262      -0.00013920      -0.00027890
O       19.76051678      12.16582768      11.96284884       0.00044122      -0.00005019      -0.00034975
O       18.96522682       9.93830771      13.10590322      -0.00023908       0.00007004      -0.00021543
O        8.36427920       9.53896670      15.34486916       0.00017031       0.00010914      -0.00007090
O        6.20592005       9.92804550      11.11617756      -0.00000120      -0.00076513      -0.00003515
O        6.87505954       2.42897194       3.00956946      -0.00020963      -0.00002436       0.00008924
O        4.11515884       3.66321540       4.11342014      -0.00029977      -0.00007810       0.00027534
O        5.99158535       2.90537740       0.56477364      -0.00016124       0.00018795       0.00005153
O        4.44432310       1.66482048       2.33419391      -0.00027933       0.00015585      -0.00005986
O        8.44368087       1.16250297       4.77813769      -0.00010388      -0.00043059      -0.00007316
O        6.49802261       0.40491670       1.27835124      -0.00020018       0.00013121       0.00000551
O        6.90074936       2.49079908       8.32452255       0.00063319       0.00033473      -0.00022836
O        4.13627568       3.66573235       9.41731657       0.00027816       0.00034430      -0.00001525
O        6.02195485       2.95344698       5.86861634       0.00005079      -0.00051396      -0.00011631
O        4.49420664       1.66853465       7.65580920       0.00037917      -0.00002867       0.00033197
O        8.37380243       1.20463944      10.14604636       0.00001968       0.00050290       0.00011072
O        6.57584618       0.47899978       6.56746318       0.00023447      -0.00005349       0.00034731
O        6.83999844       2.39924736      13.68470045      -0.00031407       0.00021625       0.00000527
O        4.09628525       3.62609927      14.78284160      -0.00029998       0.00000432      -0.00008401
O        5.99789820       2.98469195      11.24012342      -0.00002091       0.00054218       0.00001669
O        4.42295550       1.66996111      12.97187510       0.00003443       0.00028152      -0.00022271
O        8.36681344       1.14465773      15.52425881      -0.00012941       0.00027827      -0.00013976
O        6.48263800       0.46182793      11.87409489      -0.00010533       0.00030884      -0.00015114
O        9.30785061       6.68039842       2.98301091      -0.00021942      -0.00034642       0.00025941
O        6.50585928       7.85692160       4.11904880       0.00002880      -0.00021469       0.00026460
O        8.41162341       7.17608255       0.53909466      -0.00004940       0.00003711       0.00009450
O        6.88616188       5.88911840       2.33550313      -0.00029797      -0.00007999      -0.00011824
O       10.81990907       5.36864072       4.76891112       0.00011576      -0.00059913       0.00000613
O        8.95064201       4.69263627       1.21827429      -0.00013969      -0.00006953      -0.00009041
O        9.36707675       6.68206133       8.30123132       0.00042175       0.00003152       0.00002617
O        6.50425694       7.87977256       9.50884666       0.00085517       0.00005411      -0.00040717
O        8.40387138       7.17336264       5.88590988       0.00027629      -0.00071723       0.00002448
O        6.91831122       5.91233367       7.73328231       0.00030762      -0.00043557       0.00019411
O       10.95156890       5.31116042       9.97207553       0.00025144       0.00048115       0.00039544
O        8.94071644       4.69008129       6.56307658       0.00044694      -0.00028888       0.00028740
O        9.28586079       6.69129669      13.57077829      -0.00058817      -0.00043708      -0.00008116
O        6.47206848       7.80401591      14.77816502       0.00003436      -0.00004128      -0.00017131
O        7.66231387       7.97486829      11.96282464       0.00048973      -0.00014961      -0.00024171
O        6.86700028       5.74736780      13.10590620      -0.00019367       0.00005956      -0.00025314
O       10.78389584       5.34802839      15.34487876       0.00016662       0.00009234      -0.00004428
O        8.62550513       5.73705736      11.11615690      -0.00003237      -0.00069795       0.00000165
O       11.71551076      10.84504267       2.98922180      -0.00012230      -0.00002976       0.00014769
O        8.98423662      12.02922859       4.09282996      -0.00027828      -0.00021319       0.00026174
O       10.82158943      11.31001184       0.53521384      -0.00022696       0.00020637      -0.00007570
O        9.29732845      10.03535077       2.32648454      -0.00029272       0.00005986      -0.00013591
O       13.27994459       9.56182332       4.77028248      -0.00020319      -0.00040653      -0.00006349
O       11.37662736       8.83684154       1.23592533      -0.00019139       0.00004327      -0.00011332
O       11.75342105      10.84192088       8.29652093       0.00056053       0.00023095      -0.00006471
O        9.02475194      12.04288995       9.39434697       0.00018908       0.00036170      -0.00021102
O       10.92396345      11.34401467       5.82553863       0.00006985      -0.00043671       0.00000464
O        9.34763990      10.09470819       7.55372793       0.00023557      -0.00008498       0.00031473
O       13.28475137       9.58041684      10.10645214       0.00008602       0.00044728       0.00013606
O       11.43027336       8.84135675       6.53780522       0.00013067      -0.00001087       0.00029911
O       11.69994785      10.82602679      13.66175010      -0.00039412       0.00017506      -0.00017598
O        8.91525074      12.03510968      14.75553854      -0.00034836      -0.00008043      -0.00015958
O       10.88187281      11.38402062      11.20486672      -0.00016646       0.00048955      -0.00013498
O        9.29262527      10.11792933      12.93232812       0.00001447       0.00009608      -0.00017242
O       13.25141611       9.51662069      15.42237490      -0.00016737       0.00025663      -0.00025185
O       11.35869574       8.87408171      11.83859083      -0.00014321       0.00025450      -0.00010703
O       11.72751240       2.48946277       2.98303184      -0.00024149      -0.00032356       0.00026826
O        8.92550256       3.66595659       4.11905324       0.00003062      -0.00018905       0.00027383
O       10.83128678       2.98515795       0.53911909      -0.00004905       0.00001574       0.00010655
O        9.30582756       1.69816687       2.33550410      -0.00034496      -0.00005346      -0.00006364
O       13.23959655       1.17768147       4.76888526       0.00008482      -0.00059198       0.00001034
O       11.37032378       0.50171377       1.21828263      -0.00014854      -0.00009846      -0.00009404
O       11.78674188       2.49112485       8.30123083       0.00035061       0.00002397      -0.00001687
O        8.92392802       3.68878709       9.50884147       0.00083850       0.00006714      -0.00041934
O       10.82351698       2.98242978       5.88591934       0.00026900      -0.00069094      -0.00000105
O        9.33798097       1.72135905       7.73327670       0.00032793      -0.00043518       0.00015568
O       13.37124681       1.12018924       9.97203379       0.00022527       0.00049019       0.00041346
O       11.36040585       0.49915054       6.56306716       0.00036631      -0.00021207       0.00035999
O       11.70553078       2.50040582      13.57078839      -0.00059118      -0.00045562      -0.00008676
O        8.89173536       3.61302797      14.77816664       0.00001112      -0.00003946      -0.00017723
O       10.08192408       3.78392488      11.96285003       0.00045108      -0.00005109      -0.00034814
O        9.28670521       1.55638699      13.10590905      -0.00024570       0.00006793      -0.00022333
O       13.20356025       1.15709006      15.34485974       0.00013819       0.00007701      -0.00002887
O       11.04522350       1.54617650      11.11615464      -0.00003252      -0.00074212      -0.00003973
O       14.13514511       6.65412792       2.98921578      -0.00022949      -0.00006231       0.00007976
O       11.40385810       7.83827815       4.09281728      -0.00026558      -0.00018867       0.00027947
O       13.24119034       7.11905390       0.53520707      -0.00023187       0.00022591      -0.00006065
O       11.71697132       5.84437791       2.32650061      -0.00031897       0.00005802      -0.00013523
O       15.69958513       5.37091513       4.77027923      -0.00018417      -0.00038513      -0.00008676
O       13.79629719       4.64590839       1.23594018      -0.00019861       0.00003126      -0.00011440
O       14.17304790       6.65098874       8.29652642       0.00047561       0.00020978      -0.00012601
O       11.44438420       7.85193376       9.39433331       0.00020890       0.00035692      -0.00016757
O       13.34356612       7.15305668       5.82554414       0.00004876      -0.00039402      -0.00002659
O       11.76727681       5.90372205       7.55374828       0.00015475      -0.00007357       0.00036037
O       15.70440573       5.38948649      10.10643705       0.00005893       0.00039257       0.00017861
O       13.84993661       4.65041669       6.53781574       0.00011365      -0.00001624       0.00030240
O       14.11959238       6.63511188      13.66175516      -0.00044193       0.00017204      -0.00019966
O       11.33486030       7.84415857      14.75552076      -0.00029289      -0.00002894      -0.00008009
O       13.30149164       7.19307979      11.20487272      -0.00013321       0.00043092      -0.00009531
O       11.71228009       5.92695464      12.93234696       0.00010905       0.00010740      -0.00023012
O       15.67107255       5.32571859      15.42238295      -0.00021030       0.00015501      -0.00019022
O       13.77837284       4.68315482      11.83860366      -0.00006920       0.00016449      -0.00021227
O       16.55361228      10.81086907       3.00956115      -0.00012103      -0.00002827       0.00014399
O       13.79371460      12.04507172       4.11340408      -0.00028170      -0.00003186       0.00030109
O       15.67010630      11.28721832       0.56476901      -0.00017541       0.00023686       0.00002380
O       14.12288124      10.04665259       2.33421510      -0.00033268       0.00016914      -0.00004611
O       18.12223792       9.54440260       4.77813029      -0.00007518      -0.00042371      -0.00007351
O       16.17659671       8.78678564       1.27836547      -0.00024801       0.00016199       0.00005358
O       16.57929627      10.87269802       8.32452611       0.00072754       0.00035275      -0.00015289
O       13.81484346      12.04759346       9.41729406       0.00024015       0.00034368      -0.00005454
O       15.70049350      11.33530097       5.86861508       0.00006930      -0.00053877      -0.00008936
O       14.17276848      10.05037199       7.65582101       0.00023024       0.00001267       0.00042920
O       18.05234987       9.58653027      10.14604586       0.00004323       0.00048737       0.00012627
O       16.25442996       8.86087812       6.56748217       0.00027405      -0.00007021       0.00028250
O       16.51852627      10.78114508      13.68472283      -0.00030729       0.00022215       0.00000084
O       13.77481865      12.00795992      14.78282813      -0.00024102       0.00008217      -0.00001878
O       15.67643215      11.36653688      11.24012993      -0.00003852       0.00053205       0.00005054
O       14.10150015      10.05180271      12.97188867      -0.00011171       0.00031692      -0.00010561
O       18.04537288       9.52656750      15.52426648      -0.00015687       0.00019307      -0.00006483
O       16.16121144       8.84370063      11.87412573      -0.00007930       0.00029116      -0.00017394
