243
Lattice="14.51784322 0.0 0.0 7.25892161 12.57282104 0.0 0.0 0.0 15.97543468" Properties=species:S:1:pos:R:3:forces:R:3 stress="-0.05440158024305631 -0.0024170930655986766 0.0011786590663500462 -0.0024170930655986766 -0.053644909608707235 -0.006276211916623169 0.0011786590663500462 -0.006276211916623169 -0.05862967838907565" free_energy=-1880.00407871 energy=-1880.00407871 pbc="T T T"
Si      13.28795000       1.87395000       3.36536000      -0.69483300      -4.49596100      -1.28338700
Si       1.51244000       1.64711000       1.89330000      -0.88636900       5.36875500       4.60087800
Si      10.27891000      12.35113000      15.91284000       1.03333400       4.21370300      -1.17534600
Si      13.29398000       2.29413000       8.87724000      -2.29859700       0.64453900       4.12172200
Si       1.13489000       1.80406000       7.10999000      -1.34872400       0.12770100      -2.53588900
Si       9.94067000      12.49704000       5.28652000      -2.37007000       2.21969900      -3.15711800
Si      12.97879000       2.45810000      14.10372000      -1.64612900       0.79561300       2.39311900
Si      15.45648000       1.91202000      12.41924000      -2.69271200      -3.25840000      -2.37023600
Si       9.88433000      12.52350000      10.66094000      -3.18379400      -0.76295700       4.94274500
Si      15.48853000       6.38475000       3.64541000      -1.96266200      -0.60820400       2.75169600
Si      18.15202000       6.35305000       1.89926000      -4.76063200      -4.44089400      -1.86379100
Si       4.29478000       3.92429000       0.10378000       0.10169900       2.36489400      -2.82894000
Si      15.79608000       6.47006000       8.70626000       4.25301400      -4.24518600       0.81341700
Si      18.06421000       6.42017000       7.00188000      -5.21041100       1.42956300      -3.72276600
Si       5.18038000       4.46192000       5.41632000       3.47250100       2.66377600       0.22282500
Si      16.21567000       6.20305000      14.34629000      -1.91689200      -3.65911300       0.63127600
Si       3.81100000       5.99746000      12.27013000       3.68065000      -3.86112400       3.81084700
Si       5.39400000       4.01974000      10.22698000      -1.98840200       4.39384500      -0.99382400
Si      17.66892000      10.42491000       3.73616000       2.82821200       3.29323600      -2.45562100
Si      20.44948000      10.36173000       1.99446000      -2.69669800       2.86295000      -0.26099700
Si       7.10588000       8.21131000      15.97347000      -2.15254500      -0.48767300      -2.59852100
Si      18.30225000      10.76537000       8.97023000      -2.50194900      -2.67447200      -2.08561800
Si       6.30740000      10.41183000       7.09799000      -3.51498900       1.08459900       0.66503400
Si       7.47594000       8.33620000       5.24500000      -1.01029100      -2.99422100       1.69583900
Si      18.17785000      10.70013000      14.30167000       1.55249200      -3.31853000      -0.62063900
Si      20.38323000      10.76631000      12.54755000       2.12841700       1.34097600      -1.36533000
Si       7.00891000       8.77840000      10.67872000      -0.23307700      -0.95544600      -2.14389300
Si       3.71041000       2.15349000       4.03463000       0.21438000       1.13257800      -6.55659100
Si       5.89994000       1.74791000       1.92448000      -4.49710700       5.18915900      -0.14670000
Si      14.58631000      12.39740000       0.04567000       4.55988400       1.17934800       0.11422500
Si       3.57579000       2.00267000       8.72025000      -0.34359500      -0.40027700       1.07652600
Si       5.75859000       2.13369000       6.93325000       1.82660000      -3.08480200       0.59904300
Si       7.27823000       0.21090000       5.14433000      -1.92865900      -1.07548400       4.46386800
Si       3.45712000       2.25368000      13.78148000       1.20139900      -0.37606100       4.53142300
Si       6.06315000       2.22953000      12.32252000      -0.52838600      -2.93899700       1.85429100
Si      14.51224000      12.50545000      11.09589000       1.11561400       1.63118400      -1.99423100
Si       6.00242000       6.37759000       3.52256000       0.39188900       0.34715800       0.54775000
Si       8.19267000       6.35063000       1.66362000       1.92330800      -5.15953500       6.29973100
Si       9.76260000       4.70103000      15.90783000      -1.68847500      -0.72224300      -1.39246300
Si       6.01659000       6.58895000       8.56539000       4.38666600       2.69244900      -2.39609000
Si       8.85944000       6.22046000       6.86846000      -7.99730600       4.15880700       2.01020300
Si       9.96824000       4.14485000       5.39755000      -4.14912400      -1.53728300       0.33388800
Si       6.08896000       5.77855000      14.17324000       2.06276200       0.47105900      -0.19591200
Si       8.27799000       6.27602000      12.20357000       1.10041200       1.07701400       0.74673200
Si       9.82770000       4.46579000      10.29393000      -1.63331900      -3.03244000       2.72241900
Si       8.47142000      10.62060000       3.41289000      -2.67800500      -4.05153300      -0.49559100
Si      10.85129000      10.25217000       1.90600000       2.21371000      -3.00706500      -2.15213300
Si      12.30687000       8.24202000      15.86502000       3.97059400      -4.91633500       1.45945300
Si       8.64575000      10.50325000       8.88420000      -3.92968800       0.83787900      -3.36822100
Si      10.83620000      10.28408000       6.85097000       3.23149700       1.66358400       3.10438700
Si      12.36520000       8.16234000       5.07898000       3.21899300       1.36569800       2.10433500
Si       8.44003000      10.49874000      14.23596000      -3.41788500       1.06376600       2.78186200
Si      10.94323000      10.33211000      12.64215000       0.51409900       1.47453700      -3.40909500
Si      12.16478000       8.32178000      10.78017000       0.64089200      -2.29341400      -1.35354500
Si       8.43162000       2.38555000       3.50691000       2.85237900      -0.86266000       1.79279800
Si      10.71275000       2.31313000       1.46942000       4.30214700      -1.15975900      -1.10101200
Si      11.76528000       0.22281000      15.85575000       5.74362800       0.87550900       0.72066300
Si       8.14911000       1.84289000       8.85202000       7.09088900       4.42406500       1.95652200
Si      10.79354000       1.75703000       7.23438000       0.24218900       4.12232600       0.47280900
Si      19.17522000      12.39997000       5.36690000      -1.89928000      -4.40114800      -0.74630500
Si       8.17142000       2.28363000      14.31771000      -0.78409000       5.58241600      -2.26058500
Si      10.38793000       2.43543000      12.52121000       2.88303000       2.91316700      -2.09690700
Si      11.96403000       0.30090000      10.72113000       4.87097300      10.04616000       5.83550100
Si      10.53809000       6.30442000       3.72890000      -0.48352100      -0.46786600      -2.82005900
Si      13.02587000       5.99487000       1.98846000      -0.34917900       1.67579800      -5.26840000
Si      14.61542000       3.93866000       0.36871000      -2.23519500       6.83975900      -7.95452700
Si      10.89734000       6.37084000       8.71079000       0.00971800      -1.56230800       0.99920700
Si      13.42109000       5.85787000       6.93336000      -4.44879800       3.82188100       1.65067800
Si      14.29172000       3.85038000       5.29546000       2.12364500       3.81368200       0.39640500
Si      10.95627000       6.58736000      13.91017000       5.08539900      -3.89273400       4.51688000
Si      13.60172000       5.92034000      12.58563000      -1.34906500       1.54876700       1.20936800
Si      14.81171000       4.25504000      10.51389000       0.46490300      -1.14065400       3.82861200
Si      13.49481000      10.32218000       3.46766000      -2.23028400      -4.15143200      -2.91670600
Si      15.59992000       9.95681000       1.53976000      -1.02322100       0.22611300      -1.63523600
Si      17.39289000       8.47346000       0.07122000       1.30446800      -0.11861500       2.65374000
Si      13.13533000      10.71641000       9.17977000      -2.08398300       2.37110800       0.13337100
Si      15.45825000      10.71895000       7.43319000       2.12490400      -0.45446300      -4.79728700
Si      16.64947000       8.61839000       5.52903000       1.15483900       0.26965900       2.63037600
Si      13.38580000      10.35329000      14.40371000       1.83594800       0.58964000      -3.42710400
Si      15.79277000      10.19361000      12.39108000      -2.70390700      -2.46390400      -0.85213200
Si      16.93605000       8.51015000      10.53673000       1.38057000      -5.42513900      -1.15251600
O        2.63314000       2.61199000       2.92974000      -2.94208100      -1.04627100      -1.07419900
O       13.39974000       3.16620000       4.23043000      -0.66312400       1.05537000      -0.03394900
O       15.43573000       2.79338000       0.88777000       2.18804800      -3.21289500       1.19928600
O       14.80554000       1.35798000       2.96398000      -0.34846000       0.31432100      -0.95373900
O        3.25941000       1.47174000       5.30562000      -1.15688000      -4.33473200       1.42432300
O        2.41019000       0.55937000       1.35185000       0.92794100      -2.50328600      -3.40381500
O        2.09049000       2.48825000       8.19781000       1.53262900      -1.20038400       0.04776600
O       13.98241000       3.73572000       9.33122000      -2.36458800      -1.52442300      -3.76376900
O       15.38966000       3.17763000       6.15115000       2.87456600      -4.67435900       1.07588500
O       14.18868000       1.57077000       7.78769000       0.63719000      -1.08321600      -0.94159000
O        3.27583000       1.19782000      10.11970000       3.23688700       4.07224200      -3.11757000
O        1.53847000       0.34013000       6.25584000      -3.48306400       1.69880300       3.69887700
O        1.86558000       2.34541000      13.60669000       1.02856600      -0.86699600       0.00792800
O       13.74200000       3.74878000      14.75799000       1.39932000      -0.31329800       2.59387600
O       15.46309000       2.93048000      11.21237000       1.62838600       1.48794000      -1.32508900
O       13.97579000       1.74341000      13.13097000       1.55703200      -0.73113000      -2.33519100
O        4.05604000       0.88184000      14.90558000      -3.18462600      -0.28045100       0.14857400
O        1.36265000       0.46488000      11.62452000       0.23616400       1.16142100       1.33270500
O        4.63823000       5.76991000       2.90807000       0.22551300       0.78466000       3.56448200
O       16.10812000       7.44577000       4.69633000      -1.99044900      -1.02319500      -2.97546700
O       18.50135000       7.69868000       1.16202000      -0.70119800       2.49583900      -1.88884600
O       16.54795000       6.23475000       2.49857000       2.04625900       0.07738800      -1.05611800
O        6.48174000       5.14558000       4.41423000      -1.55895900      -2.33305800       2.39706800
O        3.57839000       4.99763000       0.93629000      -1.95972700       3.46267300       2.11144500
O        4.67055000       6.86517000       7.77939000       7.66517400       2.71780400       7.93713000
O       16.43595000       7.84075000       9.07440000       0.93744800       2.18052900       1.86366300
O       17.62207000       7.85878000       6.50563000      -0.82180100       0.00239100       1.02104200
O       16.92381000       5.65693000       7.69762000      -3.61711100      -1.13909800       1.95310900
O        5.88942000       5.57802000       9.72555000       1.09190100      -4.23440700       0.23486400
O        4.39544000       5.77558000       5.89489000       0.84501400      -3.70477600      -4.66966600
O        5.16969000       6.53520000      13.20479000      -5.76905900       1.86045100      -3.73576100
O       17.03105000       7.48181000      14.91252000       0.35601000       0.18465600      -2.03998700
O       17.60384000       7.05455000      11.49263000      -2.96606600       6.91909800      -4.34239100
O       17.24391000       5.33178000      13.38870000       0.77441600       1.30566300      -1.22823600
O        5.16761000       4.89577000      15.09312000       3.32532400       0.38293000       0.27034000
O        4.55653000       4.88941000      11.29463000      -2.59657400      -1.15577000       2.60594800
O        7.12132000      11.19334000       2.69744000       0.46631000      -1.24256000       1.07286800
O       17.73239000      11.80687000       4.60268000       1.59088100       2.31786300      -0.09021300
O       19.92040000      11.97807000       1.09613000      -0.93685400      -2.51030400      -0.84578200
O       19.27561000      10.11183000       3.22978000       0.15308200       0.49790000      -3.50019000
O        8.42839000       9.32638000       4.55236000       1.87531100       4.94123000      -3.42564300
O        6.58867000       9.05029000       1.26818000      -4.04942600       1.85754500       2.16064100
O        7.46744000      11.18149000       7.89001000      -2.10461100      -0.08124500       1.91937200
O       18.42402000      12.27385000       9.67304000      -3.61784700      -5.38591900      -7.17944300
O       20.34610000      11.37059000       5.85914000      -0.09202900      -1.76167400       1.05395600
O       19.34362000       9.83034000       7.98001000       1.24312600       3.67615000       0.93595300
O        8.32680000       9.58282000      10.03581000      -1.92694400      -3.48257200       3.64620400
O        6.90051000       9.07980000       6.54690000       0.52353100      -2.39379600      -0.65818200
O        7.31189000      10.92598000      13.19176000       1.66642300       0.56512200      -0.29981100
O       18.60684000      12.16405000      14.43757000      -1.51310800       2.91173300       0.47629300
O       19.86380000      12.08804000      11.84351000       1.85959900      -3.16605900       2.98428300
O       19.68407000      10.22422000      13.80242000      -3.39004300      -2.72567600       2.13967900
O        7.73759000       9.43636000      15.32941000       3.23081100       5.18140600      -4.66244100
O        5.84064000       9.80454000      11.28611000       1.98123500      -2.92834600      -1.82183300
O        7.23005000       2.24998000       2.58551000      -1.67892800       1.49851500      -1.12777400
O        4.31984000       3.33307000       4.78791000       1.37165400       3.75781700       0.32887700
O        4.96975000       2.94172000       1.03069000       4.23027000      -4.21025000       2.80001200
O        4.76348000       1.50103000       2.97872000       0.58872400      -2.25794000       1.52417100
O        8.36880000       1.17588000       4.58289000       1.28991500      -0.17782800      -0.46056200
O        6.39755000       0.72293000       0.93880000       0.48091000      -3.20958800      -1.50514800
O        7.01661000       1.55569000       7.91669000      -5.59162300       2.29612900      -3.53037200
O        4.33098000       3.39115000       9.05924000       2.10486300       0.72140300       1.67463300
O        5.89241000       3.74872000       6.76360000      -0.67657900      -0.47277200      -0.65786400
O        4.54333000       1.19363000       7.64536000      -0.73969400       2.05433100       0.15777200
O        8.17529000       0.73314000       9.89631000       0.52594000      -1.16634200       5.50004100
O        6.03253000       1.36075000       5.48913000       1.06765900      -1.32942900       0.23804800
O        6.44282000       2.75301000      13.85969000       3.78426400      -1.26002700      -0.31036200
O        3.33572000       3.53753000      14.89088000      -0.10068100      -3.82041200      -1.41673400
O        6.48091000       3.05990000      10.96147000      -0.30044900      -0.74423400       0.08124100
O        4.46536000       2.24279000      12.49150000      -2.73339100       0.72280500       0.56669700
O        8.21638000       0.92104000      15.02583000      -0.05537700      -1.66491700       3.10194600
O        6.12422000       0.42581000      12.16796000       2.14118600       4.05650100       0.32008100
O        9.06770000       6.65334000       3.10682000       0.09715900      -1.17915400      -1.35514200
O        6.25112000       7.78361000       4.33969000      -0.46868000      -0.41889100      -0.42936900
O        8.16709000       7.47778000       0.75475000       6.62712000       2.95951500      -2.42195400
O        6.67857000       6.52535000       2.08835000      -0.76025700      -1.21042500       0.61645100
O       10.97758000       5.02856000       4.64609000       0.96217600       2.22307300      -1.40573200
O        8.56251000       4.89151000       1.05436000       0.16654300       0.47892900       0.28663900
O        9.34760000       6.59883000       8.32444000       1.83283800       2.10994600       1.15127800
O        6.51003000       8.00458000       9.33504000      -1.10803300      -0.28648100      -0.44198200
O        8.57640000       7.07517000       5.51213000       0.85588900       0.71499000       0.73974800
O        7.22159000       6.22020000       7.39082000      -1.75239300       0.21343900       0.76173500
O       11.09548000       4.87669000       9.39551000      -1.30426000       1.23844800       1.42380600
O        9.31838000       4.80160000       6.74076000       1.45190500      -4.42795000      -2.44062600
O        9.81756000       6.66718000      12.99617000      -7.25201100       0.23691600      -5.41232800
O        6.91290000       7.07316000      14.78826000      -1.23314100       0.50019300       1.40005400
O        7.55456000       7.58178000      11.56727000       0.42064300       0.74135700       2.26202800
O        7.19380000       5.35610000      12.96150000       0.99878500      -0.86720200       1.46051300
O       10.26182000       6.16389000      15.40469000       0.18561300      -2.08733400       0.10635900
O        8.73633000       5.56087000      10.89072000       1.54565200      -1.22003700      -2.17773800
O       11.92758000      10.50101000       3.04734000      -0.96626700       0.19782700       1.84688200
O        9.20698000      11.89068000       3.79998000       3.76758400       4.28712500       4.49937000
O       11.19903000      11.44642000       0.90073000       0.26573900       0.17843000      -2.12388500
O        9.28840000       9.96614000       2.17335000       1.40341100      -0.46400100      -0.41175800
O       13.58499000       8.89341000       4.27170000      -0.62972100       1.64073200      -0.21986200
O       11.55299000       8.95169000       0.99792000      -4.18113700       2.91160100       3.40706500
O       11.80936000      11.02356000       8.26584000      -0.80515400      -1.80409600      -2.21374400
O        9.18281000      11.69728000       9.57961000       1.60964800       3.58156400      -0.48956400
O       11.05212000      11.53626000       5.71823000       1.09810800      -3.71033500       2.05580500
O        9.37527000      10.08911000       7.59417000       5.47891700      -2.58719700      -4.58611500
O       12.89340000       9.64026000      10.29161000       1.07937300      -0.89526300       0.28770300
O       11.75351000       9.08268000       6.27416000      -1.45605300       1.30187800       0.74970100
O       12.08346000      10.94252000      13.60335000      -0.15768500      -2.19443800       0.43379400
O        9.05415000      11.88881000      14.95053000      -0.22823700      -0.84225100       0.95273000
O       10.81380000      11.62185000      11.54847000       1.06823300      -2.25130200       2.04696800
O        9.67326000       9.97930000      13.49953000       1.30058100      -2.05605900      -0.74475500
O       13.56680000       9.11308000      15.36684000       0.12795200       1.26003100       0.61924300
O       11.10189000       9.02346000      11.68332000      -2.03532200       0.55415100       2.48090800
O       12.29111000       2.29331000       2.14197000      -0.73756600      -0.82573200       0.35059900
O        8.79415000       3.70383000       4.26237000       0.57607800       2.23476100       1.95293300
O       10.76846000       3.65134000       0.60157000       0.47164100       0.29437200       0.52434100
O        9.75440000       2.09115000       2.65423000      -0.85393800      -0.36493800       0.61097800
O       12.85490000       0.53392000       4.40327000       1.81759700       5.50218900      -4.62843500
O       10.55714000       1.00191000       0.46318000      -2.40909500       1.74120200       2.07515700
O       11.67350000       2.48135000       8.42507000       2.97213600      -0.62295100      -0.31802200
O        8.79239000       3.39614000       9.49918000      -0.54137100      -0.98563200      -0.13662800
O       10.64341000       2.93451000       6.01743000       2.29495400      -5.23390500       1.68613200
O        9.49894000       1.48649000       8.01459000      -1.83741800      -0.70034100      -0.58203500
O       13.24263000       1.47783000      10.44114000      -1.56744900      -0.98908400      -3.99687300
O       11.44053000       0.42383000       6.72684000      -0.16633500       0.24554800       0.88519100
O       11.35580000       2.76459000      13.76142000       1.87997300      -0.39003800       1.06071100
O        9.01524000       3.82803000      14.69233000      -1.70741900      -2.24888400       0.33904600
O       10.61341000       4.00840000      11.79128000      -2.28676400      -2.29485600      -1.78427100
O        8.87639000       2.02353000      12.85115000      -1.36612200      -0.24297700       0.24297300
O       12.83809000       1.38750000      15.32201000      -0.34191300      -1.42259000       1.37159800
O       11.09742000       1.23074000      11.75646000      -1.88430600       0.19575200      -1.11241600
O       13.95848000       6.64624000       3.01502000       4.30056900       0.41072800       3.50878100
O       11.18275000       7.57755000       4.32849000      -2.30407400       1.94345300       0.02066000
O       13.16152000       6.97691000       0.68107000      -1.71377300       2.08786100      -1.72950700
O       11.57670000       6.20069000       2.50040000      -2.30710000      -1.87833100      -0.63148500
O       15.19395000       5.23056000       4.90177000      -0.73379500      -0.55916400      -2.28257600
O       13.49158000       4.68817000       1.21682000       0.56482300      -2.44156900       1.63854800
O       14.38814000       6.41180000       8.13491000      -3.40489700      -0.00036900      -2.50459000
O       11.43537000       7.67054000       9.39317000       1.34642500       2.26799800       3.36452800
O       13.14572000       7.05831000       5.86906000       2.39607300      -1.95766200       0.28129600
O       11.82381000       6.01920000       7.55189000       3.32759300      -0.26481900      -3.80744200
O       15.77224000       5.42895000      10.00652000       0.14951200       0.78262500       0.40689100
O       13.35480000       4.35777000       6.50587000      -0.70807500      -0.71586000      -0.22429800
O       14.95044000       6.48004000      13.33700000      -0.32004500       0.38245800      -0.34005100
O       11.70429000       7.82460000      14.46124000      -0.16496300       4.28612000      -0.03912300
O       13.05709000       7.30184000      11.69584000       0.25716600      -1.03534100      -0.76405500
O       12.37545000       5.71739000      13.66703000      -1.36309700      -0.15495300      -1.10375000
O       15.62887000       5.39695000      15.68327000      -0.58377500      -1.66630200       0.19895700
O       13.76896000       4.48708000      11.81888000       0.39303500       2.45640800      -0.83168600
O       16.27130000      10.22524000       2.91667000       3.52014000       0.52800300       2.93183700
O       13.95541000      11.58172000       4.17063000       1.95822200       4.30229500       2.57363900
O       15.71113000      11.34888000       0.72654000      -0.26016400       2.11288500      -2.08875100
O       14.10563000      10.12986000       1.95734000      -2.84570300      -0.64688400       1.33013300
O       17.81039000       9.51605000       4.92009000      -0.53703200      -3.47063800       2.44179800
O       16.02322000       8.50994000       0.96643000       0.11882800       1.48711900      -0.29108000
O       16.90641000      10.89538000       7.99046000       4.19480700       0.18879100       2.31676000
O       13.59407000      12.08521000       9.91076000      -3.86589900      -1.77010700      -1.08135400
O       15.05912000      12.10782000       6.69824000      -1.33574000       0.68803200      -3.82112800
O       14.55792000      10.39795000       8.61147000      -0.69540000      -2.58183600       0.33270700
O       17.90257000       9.71490000      10.29096000       1.67475900       2.17874500      -1.46160600
O       15.53008000       9.45539000       6.28108000      -1.43700800       1.86345300       1.30301800
O       17.03824000      10.20824000      13.32124000       2.22967400      -0.19842800       0.68049700
O       13.82851000      11.83166000      14.82973000      -1.55031800      -1.67019900      -0.52596900
O       15.64263000      11.56878000      11.70760000       0.41593700       2.04324500      -0.88700900
O       14.59416000       9.90979000      13.35347000      -2.21744400      -0.18934400       0.87434100
O       17.97483000      10.02875000      15.77914000      -0.73727800      -2.36053000       0.32609200
O       15.62537000       9.01607000      11.19833000      -0.77911300       1.21570200       2.59122800
