192
Lattice="13.99805143 0.0 0.0 0.0 13.99805143 0.0 0.0 0.0 13.99805143" Properties=species:S:1:pos:R:3:forces:R:3 energy=-1541.8310484892836 free_energy=-1541.8310484892836 stress="-0.0024775682204453415 -0.000975315987749236 -0.0004739429688092156 -0.000975315987749236 -0.0024773414579810035 -0.0004685979439515782 -0.0004739429688092156 -0.0004685979439515782 0.0006861133386874156" pbc="T T T"
Si       2.04306698       2.25053593       1.66778649      -0.00020627      -0.00003614       0.00009128
Si       3.11240498      14.00775631       3.54360802      -0.00007999       0.00002199      -0.00001668
Si       1.68753813       5.57664684       5.28182246      -0.00023963       0.00031911      -0.00019685
Si       3.78926330       4.09718375      14.00483357      -0.00016409      -0.00026566       0.00010181
Si       4.87661931       1.82403267       5.15675149      -0.00017547       0.00018978       0.00015401
Si       0.70530193       0.12994993      -0.03997450      -0.00032572      -0.00007454       0.00005676
Si       5.92310277       5.46680237       1.78111791      -0.00031675      -0.00027668       0.00006450
Si       0.03774529       3.76395226       3.35756503       0.00000016       0.00020418      -0.00002722
Si       1.04910936       1.61944894       8.78899002       0.00026424       0.00033951       0.00002957
Si       3.16817377      14.06772453      10.47033327      -0.00003487       0.00013842       0.00015111
Si       1.73801299       5.64251533      12.20910428       0.00024432      -0.00006512      -0.00007600
Si       2.83307525       3.27849507       6.96843343       0.00001502       0.00057468      -0.00001219
Si       4.98191427       1.72315392      12.38898650       0.00009123      -0.00003923       0.00005628
Si      13.70270807      13.50116227       7.08221128       0.00051402       0.00001973      -0.00004807
Si       4.96107449       4.65401776       8.74351867       0.00034982       0.00031783       0.00000759
Si      13.92028605       3.87830257      10.59157593       0.00009726       0.00019337      -0.00007789
Si       1.61954077       8.05308071       1.79232329       0.00028056      -0.00002442      -0.00017605
Si       3.87705156       6.92147781       3.59089723       0.00011076       0.00007642       0.00003154
Si       1.71335137      11.98929481       5.39606844       0.00009868      -0.00049967      -0.00021932
Si       3.29206688       9.82214920      13.96630472       0.00001973       0.00034302      -0.00006490
Si       5.63444418       8.74025577       5.20477306       0.00023271      -0.00011756       0.00013349
Si      13.49541476       6.71883263       0.08332881       0.00035506      -0.00003055      -0.00015217
Si       4.65984404      11.95864338       1.74367592       0.00008052       0.00022723      -0.00009653
Si       0.07109503      10.17076432       3.47115627      -0.00002878      -0.00039023       0.00000270
Si       2.25242943       9.03497654       8.66814648      -0.00013111      -0.00038499      -0.00000460
Si       3.76534056       7.02837287      10.35710319       0.00028037       0.00019942       0.00013088
Si       1.83510925      11.86867789      12.16019050      -0.00025115       0.00000441      -0.00007761
Si       4.09063544      10.79042754       7.00775498      -0.00005209      -0.00041559       0.00003684
Si       5.58523536       8.67423369      12.27598999      -0.00001524       0.00022676       0.00009211
Si       0.13465131       7.69423935       6.95989615      -0.00019813      -0.00017565       0.00014088
Si       5.46450434      12.92126931       8.78356158      -0.00007999      -0.00020805       0.00003148
Si       0.01446513      10.11132451      10.54214186      -0.00011080      -0.00016660      -0.00012063
Si       8.61856758       1.05405225       1.79232293       0.00013560       0.00019396      -0.00018248
Si      10.87607796      -0.07754844       3.59089739       0.00007938       0.00016691      -0.00004253
Si       8.71237678       4.99026897       5.39606618       0.00010519      -0.00042459      -0.00012336
Si      10.29109234       2.82312179      13.96630452      -0.00003812       0.00051602      -0.00015859
Si      12.63347033       1.74122694       5.20477213       0.00022222       0.00015612       0.00023305
Si       6.49639106      -0.28019332       0.08332765       0.00022000      -0.00004739      -0.00016537
Si      11.65886864       4.95961678       1.74367673       0.00012334       0.00025082      -0.00012480
Si       7.07012059       3.17173644       3.47115575      -0.00012872      -0.00016846      -0.00000679
Si       9.25145608       2.03594806       8.66814299      -0.00019297      -0.00011889       0.00015029
Si      10.76436738      14.02739839      10.35710160       0.00021691       0.00027760       0.00018630
Si       8.83413582       4.86965191      12.16019002      -0.00029616       0.00008560      -0.00016147
Si      11.08966111       3.79139958       7.00775361      -0.00011210      -0.00017345       0.00009740
Si      12.58426083       1.67520503      12.27598999      -0.00002159       0.00047804       0.00009353
Si       7.13367681       0.69521171       6.95989658      -0.00019632      -0.00002193       0.00006936
Si      12.46353244       5.92224279       8.78356159      -0.00028422      -0.00015866      -0.00003602
Si       7.01349102       3.11229795      10.54213981      -0.00016885      -0.00011196      -0.00003592
Si       9.04209354       9.24956403       1.66778469      -0.00028018      -0.00029797       0.00010392
Si      10.11142951       7.00873190       3.54360656      -0.00001709      -0.00008612       0.00006052
Si       8.68656339      12.57567260       5.28182272      -0.00023246       0.00029354      -0.00021483
Si      10.78829081      11.09620987       0.00678176      -0.00026827      -0.00031390      -0.00000317
Si      11.87564341       8.82305997       5.15675024      -0.00006575       0.00000515       0.00028387
Si       7.70432837       7.12897655      13.95807576      -0.00041074      -0.00024819       0.00001168
Si      12.92212796      12.46582813       1.78111696      -0.00023073      -0.00032607       0.00015876
Si       7.03677293      10.76297856       3.35756372      -0.00012816       0.00007258      -0.00000970
Si       8.04813516       8.61847692       8.78898922       0.00033363       0.00012439       0.00007872
Si      10.16720015       7.06870021      10.47033295      -0.00006098      -0.00004167       0.00002656
Si       8.73704003      12.64154078      12.20910408       0.00020943      -0.00001876      -0.00016371
Si       9.83210110      10.27752168       6.96843227       0.00008115       0.00042658       0.00004738
Si      11.98094101       8.72218258      12.38898707       0.00000283      -0.00037864      -0.00007361
Si       6.70368147       6.50213607       7.08221110       0.00055780       0.00003920      -0.00007160
Si      11.96010114      11.65304241       8.74351879       0.00028101       0.00033562       0.00004558
Si       6.92125979      10.87732977      10.59157469       0.00022902      -0.00000715       0.00001055
O        6.87415265       6.69766727       1.29612012      -0.00028891      -0.00020494       0.00009897
O        2.44902574       1.37107820       2.96556691      -0.00040869      -0.00022116       0.00032750
O        1.73382221       1.31982430       0.37029815      -0.00036340      -0.00033790       0.00009729
O        5.05076606       5.92410588       3.07186091      -0.00017467      -0.00031376       0.00022874
O        5.64606445       2.51728694       3.90359500      -0.00008380      -0.00054273       0.00004239
O        1.91691990       4.54630019       6.51913687      -0.00021673       0.00016988      -0.00016052
O        1.05708538       4.86344006       3.96994592      -0.00005279       0.00020667      -0.00035789
O        3.70286004       2.82152567       5.67577406       0.00020932       0.00054340      -0.00001330
O        3.11160829       6.22976639       4.84741678      -0.00028910       0.00045370       0.00001147
O        5.86742402       1.54494061       6.41030132      -0.00024672       0.00005972       0.00028622
O        4.24377859       0.41106604       4.64651447      -0.00062283       0.00009651       0.00053538
O        0.64752381       6.72150192       5.76979637      -0.00043690       0.00003567      -0.00026101
O        3.28122754       3.23257853       1.29002093      -0.00024539      -0.00041023       0.00015035
O        6.84149502       4.20174099       2.23343212      -0.00017143      -0.00037303       0.00013059
O        4.99544648       5.06051033       0.50707653      -0.00030095      -0.00024623       0.00015534
O        0.70925577       3.11524207       2.02419072      -0.00023005      -0.00007117       0.00003524
O        5.46445648       5.52150518       7.46035337       0.00043558       0.00012279      -0.00003470
O        2.01632275       1.10112704       9.98115162       0.00041173       0.00048120       0.00019988
O        0.01334287       0.43603523       8.37821179       0.00066948      -0.00015441      -0.00002921
O        4.43228109       5.60752036       9.94790624       0.00077905       0.00040052       0.00009425
O        6.11430012       1.96509178      11.24976215      -0.00028159      -0.00017475      -0.00010687
O        2.56003102       4.99516863      13.44765430      -0.00029945      -0.00046107      -0.00004031
O        1.33256036       4.51537156      11.10350180       0.00014514       0.00030504      -0.00051729
O        4.30816612       3.14087928      12.79823474      -0.00007565      -0.00039722       0.00003924
O        2.63147632       6.79079158      11.49578862       0.00055960      -0.00012798       0.00039302
O        5.62992442       1.05176728      13.72273859       0.00029778      -0.00011979       0.00008101
O        3.87650029       0.70742521      11.78131994      -0.00006406      -0.00058260       0.00010505
O        0.38018489       6.31474196      12.78513865       0.00010581       0.00008158      -0.00018371
O        1.88015176       2.04873601       7.45271489       0.00027038       0.00029215       0.00003170
O        6.19675050       3.76702598       9.30397691      -0.00011103      -0.00016715      -0.00020527
O        3.76331496       3.68056610       8.24218297      -0.00023518       0.00077358      -0.00007461
O        0.20610721       2.89156420       9.33572365       0.00005496      -0.00013330      -0.00022014
O        5.51643750      12.47763821       0.45947528       0.00040543      -0.00002889      -0.00009773
O        2.88243361       7.19639831       2.33926259       0.00034569       0.00032102      -0.00019708
O        0.42406110       7.03075864       1.38304625       0.00042098      -0.00010165      -0.00019266
O        3.75235432      13.17783583       2.30689954       0.00058024       0.00075589      -0.00004805
O        6.78732071       9.62941166       4.49392522       0.00016967       0.00050642       0.00017512
O        3.12959932      11.31450021       5.80761591      -0.00002057      -0.00056937      -0.00027680
O        0.69924188      10.88497907       4.78351829      -0.00018460      -0.00024351       0.00015106
O        4.98691790       9.56447199       6.44134238       0.00003004      -0.00024084       0.00030764
O        1.95857200      13.12463243       4.26055994       0.00018452      -0.00073578      -0.00057898
O        6.29999529       7.37969805       5.78242694       0.00059420       0.00014716      -0.00004646
O        4.50906974       8.33668532       4.09642518       0.00045001      -0.00005208       0.00001182
O        1.03820716      12.63480094       6.72903230       0.00045688      -0.00005518      -0.00021498
O        2.05699578       8.87725653       0.45452910       0.00007775       0.00027396      -0.00004814
O        5.62364477      11.44453717       2.94604811      -0.00011128      -0.00004187       0.00003127
O        3.70507726      10.74647607       1.24221206      -0.00030118       0.00069684      -0.00005187
O        1.11329472       9.02708848       2.98449691      -0.00006525       0.00002729       0.00009214
O        6.69835413      13.86814125       8.29787226      -0.00023618      -0.00029625      -0.00003296
O        3.12032179       7.70318026       9.02375830      -0.00012630      -0.00010481       0.00011090
O        1.32389697       8.72367755       7.36959802      -0.00004515      -0.00025625       0.00009629
O        4.20155400      13.84337224       9.23456106      -0.00017066      -0.00012268       0.00007074
O        6.23061205      10.10211561      11.84255189       0.00067212       0.00025372       0.00008171
O        2.83713620      10.69764244      12.67661651      -0.00011911       0.00025130      -0.00025983
O        0.42250008      11.23258125      11.65287652      -0.00027996      -0.00019851      -0.00005950
O        4.55221419       8.89779112      13.51218490       0.00014045       0.00063888       0.00013205
O        2.52430543      12.63979116      10.90582604      -0.00062608       0.00014620      -0.00010973
O        6.73582072       7.64040578      12.76370168      -0.00023185      -0.00014675       0.00019163
O        4.87568628       8.03897690      10.96451928      -0.00000399       0.00072020       0.00003166
O        1.55543422      12.85925603      13.41416142      -0.00036361      -0.00017302      -0.00001516
O        3.23109064      10.27629429       8.29198376      -0.00011291      -0.00013593      -0.00007511
O        5.91910258      12.04842401      10.07523120      -0.00029668      -0.00007025      -0.00010986
O        5.05587718      11.99408081       7.51003197      -0.00028515      -0.00013059      -0.00003333
O        1.37123103       9.43679997       9.96616720      -0.00019803      -0.00015057       0.00008905
O       12.51546482       5.47861341       0.45947488       0.00031230      -0.00011369      -0.00001533
O        9.88145818       0.19737501       2.33926012       0.00050437       0.00022694      -0.00007519
O        7.42308685       0.03173176       1.38304523       0.00046699      -0.00009391      -0.00014588
O       10.75137903       6.17880897       2.30689929       0.00059059       0.00075432      -0.00005607
O       13.78634762       2.63038851       4.49392572       0.00007538       0.00035798       0.00029930
O       10.12862477       4.31547626       5.80761452       0.00001208      -0.00060068      -0.00025773
O        7.69826888       3.88595442       4.78351731      -0.00024556      -0.00031550       0.00008781
O       11.98593913       2.56544775       6.44134403       0.00021152      -0.00049729       0.00009576
O        8.95759690       6.12560831       4.26055959       0.00018645      -0.00072657      -0.00059547
O       13.29902089       0.38067355       5.78242709       0.00063563       0.00005974       0.00000634
O       11.50809731       1.33765968       4.09642388       0.00040326      -0.00011863      -0.00003576
O        8.03723148       5.63577452       6.72903225       0.00049113      -0.00008722      -0.00025962
O        9.05602081       1.87823140       0.45452767       0.00002965       0.00020437       0.00002094
O       12.62267033       4.44550986       2.94604912      -0.00018107      -0.00001210      -0.00000999
O       10.70410268       3.74745057       1.24221162      -0.00030427       0.00067379      -0.00006727
O        8.11231722       2.02806465       2.98449762       0.00009703      -0.00020217      -0.00006991
O       13.69737863       6.86911348       8.29787266      -0.00011639      -0.00018834      -0.00010920
O       10.11934865       0.70415767       9.02375584      -0.00003593      -0.00024333       0.00017440
O        8.32292543       1.72465134       7.36959756      -0.00017804      -0.00035380      -0.00002390
O       11.20057905       6.84434619       9.23456001      -0.00012104      -0.00013955       0.00004751
O       13.22963842       3.10309278      11.84255013       0.00055663       0.00003479       0.00023053
O        9.83616111       3.69861782      12.67661363      -0.00000191       0.00007812      -0.00010864
O        7.42152672       4.23355570      11.65287484      -0.00031328      -0.00023184      -0.00007514
O       11.55123834       1.89876484      13.51218558       0.00023368       0.00058197       0.00006438
O        9.52333141       5.64076488      10.90582394      -0.00062315       0.00017246      -0.00010432
O       13.73484658       0.64138138      12.76370237      -0.00017763      -0.00020386       0.00022506
O       11.87471437       1.03995064      10.96451968      -0.00005075       0.00066814      -0.00001659
O        8.55446074       5.86022902      13.41415931      -0.00038782      -0.00011087       0.00003680
O       10.23011412       3.27727091       8.29198257      -0.00014619      -0.00019555      -0.00005457
O       12.91812552       5.04939982      10.07522929      -0.00014140      -0.00026517       0.00005741
O       12.05490403       4.99505502       7.51003066      -0.00032521      -0.00019487      -0.00005551
O        8.37025386       2.43777408       9.96616673      -0.00003252      -0.00025653      -0.00005676
O       13.87317747      13.69669342       1.29612149      -0.00030414      -0.00022372       0.00009664
O        9.44805234       8.37010264       2.96556729      -0.00048278      -0.00004141       0.00018015
O        8.73284653       8.31884773       0.37029523      -0.00022805      -0.00013377       0.00024464
O       12.04979003      12.92313019       3.07186081      -0.00016134      -0.00033059       0.00020015
O       12.64509042       9.51631146       3.90359553      -0.00004058      -0.00049382      -0.00001579
O        8.91594791      11.54532569       6.51913761      -0.00027478       0.00028458      -0.00022940
O        8.05611233      11.86246275       3.96994467       0.00002373       0.00029063      -0.00028130
O       10.70188711       9.82055056       5.67577305       0.00012726       0.00062231       0.00004011
O       10.11063295      13.22879468       4.84741567      -0.00033898       0.00041447       0.00005367
O       12.86645125       8.54396439       6.41030323      -0.00043449       0.00016704       0.00012588
O       11.24280410       7.41009120       4.64651362      -0.00062329       0.00013684       0.00052995
O        7.64654751      13.72052529       5.76979563      -0.00043499       0.00003257      -0.00025000
O       10.28025119      10.23160389       1.29001997      -0.00013790      -0.00031306       0.00008480
O       13.84052275      11.20076569       2.23343467      -0.00025497      -0.00022104       0.00000946
O       11.99447351      12.05953469       0.50707590      -0.00029141      -0.00024703       0.00014338
O        7.70828204      10.11426693       2.02418905      -0.00025619      -0.00003583       0.00005492
O       12.46348261      12.52052968       7.46035414       0.00049791       0.00019024      -0.00008763
O        9.01534999       8.10015177       9.98115183       0.00028516       0.00058428       0.00010551
O        7.01236894       7.43506075       8.37821028       0.00069746      -0.00009616       0.00001483
O       11.43130507      12.60654689       9.94790617       0.00083175       0.00032001       0.00003698
O       13.11332692       8.96411772      11.24976261      -0.00028715      -0.00018334      -0.00008702
O        9.55905832      11.99419780      13.44765269      -0.00017937      -0.00055813       0.00006203
O        8.33158844      11.51439716      11.10350145       0.00008255       0.00026894      -0.00052915
O       11.30719293      10.13990242      12.79823197      -0.00017662      -0.00016903       0.00017882
O        9.63050047      13.78981818      11.49578657       0.00060257      -0.00011153       0.00035936
O       12.62894870       8.05079262      13.72273913       0.00026438      -0.00006359       0.00004609
O       10.87552438       7.70644810      11.78131599       0.00018252      -0.00035125       0.00035260
O        7.37921050      13.31376723      12.78513763       0.00012121       0.00006346      -0.00018877
O        8.87917730       9.04776144       7.45271470       0.00032886       0.00036154      -0.00002797
O       13.19577622      10.76605185       9.30397778      -0.00004923      -0.00019188      -0.00015862
O       10.76234226      10.67959083       8.24218242      -0.00026329       0.00077156      -0.00010577
O        7.20513436       9.89058858       9.33572203      -0.00002904       0.00002493      -0.00010650
