216
Lattice="14.72649933 0.0 0.0 -7.36324966 12.75352253 0.0 0.0 0.0 16.1009726" Properties=species:S:1:pos:R:3:forces:R:3 energy=-1733.6269197583247 free_energy=-1733.6269197583247 stress="-0.005537042741081769 -0.00025035369719801105 0.0005764007215128128 -0.00025035369719801105 -0.004501477738561498 0.0006571717432635528 0.0005764007215128128 0.0006571717432635528 -0.009890338479354003" pbc="T T T"
Si       2.45109228       1.19795327       7.71185487      -0.00015912      -0.00034332      -0.00011955
Si       0.17789133       3.26199383       3.75297474      -0.00024826      -0.00017871       0.00003162
Si       0.29106131       2.54069803       0.78590573       0.00006041       0.00007993       0.00001703
Si       2.28150429       1.14958413       4.70444400      -0.00043132      -0.00027480      -0.00012436
Si       2.63114698       1.28443185      15.50630793       0.00009026       0.00006463       0.00001724
Si       0.13766292       2.84435146      11.40170927       0.00006153      -0.00009332       0.00007628
Si      -0.15088724       2.76059584       8.37339999      -0.00005564      -0.00037169       0.00014798
Si       2.29334291       0.94628157      12.50241572       0.00008083       0.00002942       0.00009212
Si       4.36705767       6.14953536       7.42062745      -0.00003984      -0.00005683      -0.00020649
Si       2.06304607       7.71892438       3.35841996      -0.00013758      -0.00006577      -0.00018235
Si       1.96559030       7.07914273       0.23774289      -0.00021064       0.00020278      -0.00032079
Si       4.28383153       5.75134040       4.40476645      -0.00017764      -0.00027572      -0.00028129
Si       4.76356240       5.84238005      15.85373409      -0.00002801       0.00018068      -0.00004393
Si       2.94674061       7.29130451      11.76732425       0.00009097      -0.00005472       0.00017214
Si       2.16688653       7.64729936       8.78706894      -0.00011785      -0.00020615       0.00002184
Si       5.11620373       5.18410695      12.81719292       0.00009133      -0.00002451       0.00005006
Si       7.72751798       9.91001588       7.93331921      -0.00001060      -0.00039468      -0.00010797
Si       5.37977806      11.35841313       3.79864368       0.00007579       0.00006072      -0.00005307
Si       4.97689927      11.08502717       0.72537934       0.00006761      -0.00008280       0.00001484
Si       7.87298330       9.70091909       4.91149737      -0.00012729       0.00001264      -0.00011945
Si       7.43055510       9.98851573      15.25194748       0.00012582      -0.00020801       0.00001801
Si       5.30964137      11.58249715      11.31789295      -0.00000430       0.00007777      -0.00014856
Si       5.04171475      11.45517067       8.27348800      -0.00006718      -0.00031455       0.00003009
Si       7.26885181       9.36845092      12.23369606      -0.00003752      -0.00002861       0.00001778
Si       7.09829217       2.06644730       8.01941452       0.00013669       0.00017864      -0.00010272
Si       4.67332320       2.87878809       3.59989189      -0.00035036      -0.00011535      -0.00000155
Si       5.01875649       2.88124455       0.56030375      -0.00001556       0.00030413       0.00005673
Si       7.26122967       1.93934391       4.88782062      -0.00026302       0.00018852      -0.00010162
Si       7.14245192       1.11368390      15.18011312       0.00016562       0.00054193       0.00005570
Si       4.70056231       2.48044430      11.58410661       0.00008662      -0.00006347       0.00011062
Si       4.37379196       3.40335107       8.67689605      -0.00028753      -0.00031382       0.00016370
Si       7.46861889       1.51681786      12.16849468       0.00000714       0.00018466       0.00005222
Si       9.78606548       5.47102860       7.31666776       0.00018822      -0.00009666       0.00023832
Si       7.16998148       6.94314723       3.79430378      -0.00003712      -0.00020988       0.00008116
Si       7.13221037       7.31447296       0.73611683       0.00017985      -0.00015526      -0.00012149
Si       9.71051419       5.38169499       4.30221285       0.00025946       0.00010810       0.00026520
Si       9.27828377       5.53036574      15.57688667       0.00016471       0.00039503      -0.00031961
Si       7.40747341       6.38416975      11.30959726       0.00001254      -0.00011679      -0.00022054
Si       7.23809753       6.87777424       8.28477816      -0.00002508      -0.00023973      -0.00012914
Si      10.09520790       5.87039209      12.66574978       0.00006897       0.00017710      -0.00023645
Si      -2.44324575       9.85141513       7.17156993       0.00006950      -0.00002661      -0.00010965
Si      -4.89620537      11.24818998       3.12212643      -0.00027711      -0.00017768      -0.00005746
Si      -4.66314951      11.12620398       0.03456284      -0.00008331       0.00000687       0.00003391
Si      -2.33932769       9.98150140       4.08553712      -0.00012162       0.00005795      -0.00004361
Si      -2.07279937       9.31409004      15.90274151       0.00004941       0.00020602       0.00032297
Si      -4.70765673      10.72130303      11.98643420       0.00007473       0.00003367       0.00011587
Si      -4.56089192      11.24121888       9.01987667       0.00004977      -0.00026233      -0.00007707
Si      -1.93024047       9.90695710      12.91543977       0.00006369       0.00025493       0.00032744
Si      12.06185211       1.47499447       7.08405916      -0.00035929      -0.00034792      -0.00009783
Si       9.72593621       2.67523397       3.00801482      -0.00008294       0.00031411      -0.00007607
Si       9.55121453       2.52747438       0.00431387       0.00024371       0.00050985      -0.00007022
Si      12.30040932       1.61161738       4.04768320      -0.00023154       0.00000664      -0.00014631
Si      12.37885010       1.27016059      16.06290621       0.00017539      -0.00002110       0.00017755
Si      10.25983515       2.85081915      12.01143986       0.00011602       0.00009846      -0.00007052
Si       9.95422050       2.79287414       8.92669626       0.00005172      -0.00002092       0.00020437
Si      12.76780535       1.39331778      13.01033527       0.00000009       0.00002659       0.00006636
Si       0.06739013       5.74256452       7.84322116      -0.00012163      -0.00029523      -0.00012675
Si      -2.63888179       6.99121710       3.55067645      -0.00014173       0.00005507       0.00005821
Si      -2.62882350       6.27350587       0.62655612       0.00003250       0.00029233      -0.00002631
Si      -0.08454051       6.22384606       4.83366349      -0.00013279      -0.00019772      -0.00000665
Si      -0.24513012       5.12658924      15.37469171      -0.00013799      -0.00003916       0.00010393
Si      -2.21390019       7.25651093      11.42660963       0.00026558       0.00033465      -0.00003350
Si      -2.57915687       7.07293569       8.37568537       0.00021249       0.00022578      -0.00015548
Si       0.29197801       5.68834797      12.27503439       0.00002092      -0.00007303       0.00018984
Si       2.13014297      10.37854661       7.60719080       0.00016298      -0.00039248       0.00026212
Si      -0.01489866      11.91267534       3.73394638       0.00005588       0.00029863       0.00032028
Si      -0.09318890      11.37750571       0.73973304       0.00020048       0.00050287       0.00020492
Si       2.51776821      10.51029418       4.57721589       0.00006741       0.00002138       0.00021342
Si       2.39081026      10.02118575      15.58784560      -0.00002016       0.00025891      -0.00023315
Si       0.16236813      11.37797560      11.36254725       0.00001353       0.00016764       0.00014648
Si      -0.34556408      11.78714398       8.38197514       0.00013001      -0.00009841      -0.00016434
Si       2.72906448      10.20193211      12.55630695       0.00010518       0.00002819      -0.00010101
O       -1.17323004       1.84614192       0.92864765      -0.00000436      -0.00030260       0.00000205
O        1.95609088      -0.06944931       3.68411350      -0.00044497      -0.00035100       0.00010288
O        1.08362625       2.24516313       4.64108389      -0.00037420      -0.00030962       0.00003464
O        1.40469667       1.40316206       0.46682733       0.00017462       0.00014194       0.00010591
O        2.39012152       0.55742229       6.21583904      -0.00010435      -0.00014266       0.00004475
O        0.66087806       3.24758783       2.20016323      -0.00007709      -0.00000099       0.00009364
O       -1.38339103       2.83944370       3.86796369      -0.00029165      -0.00000673      -0.00009382
O       -4.04081604      12.57146711      15.70191389      -0.00001529      -0.00008981       0.00006219
O       -1.47343096       2.50520310       7.47547450      -0.00028028      -0.00063870       0.00007039
O       -5.39775842      12.11613412      12.43676356       0.00005798      -0.00008521       0.00006706
O        1.30173426       1.71669884      11.47689675      -0.00004641       0.00000524       0.00004111
O        0.93842075       1.58294763       8.15338297      -0.00011959      -0.00029185       0.00007681
O        2.02870499       1.48145417      14.01148567       0.00004154      -0.00000041       0.00010079
O       -0.57635737       2.78586731       9.94298667      -0.00002695      -0.00013799      -0.00015118
O       -1.00898337       2.63081015      12.53981907      -0.00000208      -0.00003196       0.00006745
O        3.04693196       0.07177579       8.72851648      -0.00000166      -0.00032993      -0.00009422
O        0.57824324       6.26434898      16.18689829       0.00012381       0.00011434      -0.00022267
O        4.01539913       4.37199770       3.58434455      -0.00053896      -0.00007417      -0.00001792
O        3.07822752       6.79965388       4.20872666       0.00003746       0.00028406      -0.00033860
O        3.17563932       6.15936127      -0.33738585       0.00004515       0.00047161      -0.00023678
O        4.34754252       5.39756047       5.98470490      -0.00043995      -0.00012717      -0.00004998
O        2.21500841       7.36890102       1.79909141      -0.00018463       0.00027382       0.00004339
O        0.56617866       7.40289218       3.91654951       0.00001941      -0.00015969      -0.00007206
O        5.06698713       4.50137559       0.61603347      -0.00038558       0.00015780       0.00021809
O        0.93614214       6.59172338       8.92468955       0.00020489      -0.00050871       0.00006784
O        4.59993346       3.64083199      12.73050783       0.00008929       0.00011492      -0.00006760
O        4.06955579       6.17396493      12.07770174       0.00035382       0.00009941       0.00007467
O        3.18314823       7.25531805       7.57007955       0.00007835      -0.00007144       0.00008751
O        5.32335878       5.62956507      14.35296111       0.00009128      -0.00012928       0.00014198
O        2.99067695       7.63924065      10.18252318      -0.00009658      -0.00020789       0.00008188
O        1.48021623       6.78305838      12.23819518       0.00024420      -0.00020959       0.00032850
O        4.09991325       4.99737110       8.53662219      -0.00022666      -0.00021341      -0.00007795
O        3.89047712      10.04141988       0.11864721      -0.00005398      -0.00004035       0.00016168
O        7.49266227       8.12057624       4.86593801      -0.00063401      -0.00015052      -0.00019291
O        6.59089108      10.60200905       4.53182319       0.00036282       0.00029120       0.00013747
O        6.38061320      10.93366225      16.03510118      -0.00019386      -0.00003737      -0.00010850
O        8.32384953      10.05134066       6.42826656       0.00017361      -0.00038552      -0.00001704
O        5.20815523      10.76303964       2.29679038       0.00022303      -0.00015596      -0.00008576
O        4.02823882      11.08397821       4.65348168      -0.00008552      -0.00039529      -0.00003384
O        7.69565399       8.61137350      16.05972190       0.00017926       0.00007908       0.00036367
O        3.63088682      10.70393188       8.07936306      -0.00009591      -0.00069507       0.00068136
O        6.91952467       7.83687463      11.84868356       0.00008532       0.00001854      -0.00029988
O        6.37888029      10.35880546      11.30532803       0.00030210      -0.00009399       0.00024745
O        6.17337820      10.34453283       7.97698464       0.00017874      -0.00013626      -0.00028260
O        6.85128683       9.65304257      13.77672123       0.00009040      -0.00047310       0.00003138
O        5.12336183      12.05909791       9.77931034       0.00043921      -0.00001874      -0.00012537
O        3.88308534      11.16053937      11.95677135       0.00001135      -0.00001404      -0.00041839
O        7.84955337       8.37368030       8.44874183      -0.00019667      -0.00018898      -0.00004420
O        3.73908172       2.43516650      15.76734427       0.00016384      -0.00008227      -0.00006868
O        6.75799844       0.41479092       4.58090694      -0.00003352       0.00015346       0.00023218
O        6.09892384       2.96290300       4.38559439      -0.00052151       0.00001168       0.00032502
O        6.37232598       2.27849133      -0.09366720       0.00024021       0.00066148      -0.00013625
O        7.55277279       2.15749503       6.46354575       0.00016884       0.00038341       0.00011804
O        4.88212598       2.33653745       2.08309032       0.00019012       0.00004046      -0.00010051
O        3.70341190       1.83244505       4.35232517      -0.00035390      -0.00023957      -0.00043615
O       -0.64471218      12.37804537      15.67904377      -0.00005536       0.00055460       0.00042489
O        3.40923003       2.51432326       7.70923776      -0.00002584      -0.00010124       0.00006071
O        8.07985132       0.15195638      11.51987699       0.00012933       0.00006435       0.00002564
O        6.24579351       2.07844655      11.24865124       0.00004554      -0.00001715      -0.00001696
O        5.93008537       3.15187509       8.29090348      -0.00006419      -0.00011510      -0.00012152
O        6.77851136       1.24331140      13.61292031       0.00008273       0.00018011       0.00003792
O        4.03448387       3.02473193      10.21208741      -0.00006768       0.00001176      -0.00041960
O        3.85357785       1.18586922      12.08869129       0.00000636      -0.00000586       0.00009182
O        6.53480664       0.58139704       8.36991157       0.00030731       0.00003085      -0.00023600
O        5.53602716       7.09236743       0.46454782       0.00010515       0.00013228      -0.00004707
O       10.19115497       4.20810450       3.29324848       0.00007513       0.00020919       0.00020759
O        8.12429019       5.66385554       4.09752501      -0.00001779      -0.00002902       0.00059192
O        7.90566499       5.99301579       0.19703379      -0.00000053       0.00000546      -0.00044060
O       10.02335026       4.89107441       5.81912922       0.00038483       0.00003270       0.00030022
O        7.42643187       7.54541926       2.30955742       0.00021642      -0.00063244       0.00016775
O        5.64023364       6.45872680       3.89404376      -0.00000250      -0.00063320      -0.00014309
O        9.20856097       3.92722990      15.36657441       0.00068614       0.00015350      -0.00032789
O        5.78537063       6.92524927       7.57153887      -0.00011288      -0.00050740      -0.00034638
O       10.62571729       4.33703551      12.55894810       0.00010114       0.00006281      -0.00036444
O        9.00586715       6.16404330      11.49560938       0.00004422       0.00008771      -0.00051600
O        8.23712228       5.94831051       7.40584094       0.00017862      -0.00029312       0.00012946
O        9.40793876       6.20319430      14.10245396       0.00002277       0.00026472      -0.00061841
O        7.05931984       6.20437504       9.74420025      -0.00030465      -0.00031732       0.00012057
O        6.57992769       5.24010936      12.10904046       0.00033396       0.00004780       0.00012019
O       10.14298983       4.31099759       8.38639623       0.00031740       0.00010676       0.00016778
O       -5.88232024      10.77457555      15.11624827      -0.00000960      -0.00003552      -0.00010189
O       -2.41736872       8.57642337       3.27214098       0.00006428       0.00024174       0.00012605
O       -3.28642491      11.08572403       3.34717180      -0.00016061       0.00003916      -0.00017481
O       -3.53340378       9.98513867      -0.05790156       0.00003573      -0.00005840       0.00014463
O       -2.83398432       9.71523736       5.60707952      -0.00011976       0.00037295      -0.00010171
O       -5.25824935      11.17335032       1.54607871      -0.00024102      -0.00007104      -0.00008532
O       -5.63562918      10.02147199       3.89032038      -0.00001986      -0.00039623      -0.00015624
O       -2.21308847       7.74822039       0.12354126       0.00061720       0.00054674       0.00011962
O       -6.14922067      10.89300929       8.91089047       0.00015094      -0.00034275       0.00001076
O       -1.64642182       8.71997726      11.83952958       0.00036021       0.00003680       0.00035253
O       -3.50620642      10.30578148      12.99492350       0.00012567       0.00001871       0.00011878
O       -3.77056323      10.30626969       7.97002295       0.00016291      -0.00032502       0.00030519
O       -1.46930124       9.44955119      14.39944218       0.00024896       0.00063063       0.00017380
O       -4.03625027      10.88339809      10.51234552       0.00001924      -0.00006709       0.00021772
O       -5.86111081       9.57783008      11.99078139       0.00013987      -0.00005076       0.00013060
O       -1.92623182       8.41884519       7.73871255       0.00028290      -0.00026553      -0.00050297
O        8.75391469       1.31908126      15.36529987      -0.00000907       0.00032839      -0.00008778
O       13.06477541       0.20069687       3.77867094      -0.00037067       0.00002849      -0.00012718
O       11.05387862       1.73479414       3.00856004      -0.00042469       0.00009103      -0.00004280
O       11.15098085       2.31905931      16.01199886       0.00021980      -0.00002110       0.00012748
O       11.65439043       1.69991819       5.53524198      -0.00027220       0.00001041       0.00008409
O        9.04067828       2.58075900       1.54617914       0.00001304       0.00070376      -0.00031000
O        8.65387771       2.21186692       4.11876523      -0.00049387       0.00039028      -0.00034214
O        4.45427840      12.61253047       0.53692733       0.00002344      -0.00016339       0.00008052
O        8.37793551       2.40089136       8.96245155      -0.00022752       0.00030021       0.00000857
O        5.87637562      12.83599408      12.17459520      -0.00011286       0.00011874       0.00001407
O       11.19697463       1.76555308      12.78275420      -0.00000858       0.00014784       0.00022684
O       10.74721193       1.72625498       7.99744058      -0.00023243      -0.00020776      -0.00015862
O       13.01210471       1.07856837      14.57976874       0.00005276      -0.00010843      -0.00006989
O       10.56635235       2.73186385      10.42355528       0.00004674      -0.00033672       0.00004119
O        8.68378814       2.57930780      12.30347325      -0.00004826       0.00015980       0.00000873
O       12.58060624      -0.05773268       7.24387856      -0.00077162      -0.00033791      -0.00036962
O       10.51426291       5.99169025       0.42428559       0.00003933       0.00081683      -0.00040087
O        0.37340176       4.76609542       4.30260151      -0.00013744      -0.00010418       0.00019483
O       -1.70161416       6.42929748       4.76228285       0.00002772      -0.00004861       0.00004400
O       -1.79309008       5.16172606      15.88488493      -0.00004016       0.00021655       0.00003311
O        0.39266950       6.36363422       6.37640162      -0.00001381      -0.00013410       0.00011143
O       -2.26152285       6.15457641       2.20606752      -0.00026439       0.00014171       0.00000045
O       10.53085281       6.74710592       3.95896346      -0.00005473       0.00015892       0.00024479
O        0.34429673       3.64300019      15.68687293      -0.00015997      -0.00000638       0.00013040
O       10.75439081       6.74351721       7.61155854       0.00005305       0.00012873       0.00033739
O        0.83446367       4.29734936      11.63165001      -0.00001268      -0.00007877      -0.00008986
O       -0.99083298       6.19247278      11.41565428       0.00025916       0.00019150      -0.00008207
O       -1.52028670       5.84931988       8.18599493       0.00007516      -0.00011890       0.00005145
O       -0.18053327       5.44282370      13.80033812      -0.00016593      -0.00014874      -0.00031613
O       -2.89105867       7.29509899       9.95382696       0.00053908       0.00069699       0.00000282
O       -3.35251241       6.85585345      12.51500704       0.00009864       0.00015186      -0.00030816
O        0.50172836       4.17925325       7.91175001      -0.00027920      -0.00037461      -0.00025689
O       -1.03538377      10.04936544       0.82285082      -0.00004417       0.00063244       0.00033204
O        2.40528468       9.29335353       3.51264726      -0.00042912       0.00015579      -0.00003538
O        1.55522042      11.73013105       4.10768973       0.00009620      -0.00000426       0.00079180
O        1.43717398      10.92233759       0.44296276      -0.00012421       0.00042199      -0.00018708
O        2.08032788       9.96733575       6.03953238       0.00037646      -0.00038737       0.00023319
O       -0.14671790      12.20093526       2.13937265       0.00057698       0.00031722       0.00021653
O       -0.81842405      10.55031252       4.10953436      -0.00009286       0.00018842      -0.00005914
O        1.86951101       8.47992037      15.51718601      -0.00028380       0.00020639      -0.00009949
O       -1.26701927      10.94877444       7.34777660       0.00021036       0.00012831       0.00008772
O        3.27149317       8.66591752      12.57598333      -0.00002067       0.00009025      -0.00001916
O        1.39550697      10.34224769      11.62324705      -0.00013056       0.00008040       0.00004916
O        1.20182510      11.69335377       7.87428049       0.00014713      -0.00027040       0.00003694
O        2.38323759      10.65117720      14.08469931       0.00030324       0.00017997       0.00003055
O       -0.46732357      11.16151228       9.87862172       0.00003492       0.00017163       0.00001352
O       -1.02343750      11.16939496      12.45354560       0.00007920       0.00039651      -0.00009074
O        1.56163800       9.12397030       8.47388159      -0.00026405      -0.00049284       0.00011642
