216
Lattice="14.72649933 0.0 0.0 -7.36324966 12.75352253 0.0 0.0 0.0 16.1009726" Properties=species:S:1:pos:R:3:forces:R:3 stress="-0.017465902096378914 -0.0047711219229894285 -0.006818162154023612 -0.0047711219229894285 -0.01492672511227796 0.0020481449781494655 -0.006818162154023612 0.0020481449781494655 -0.01456931133369338" free_energy=-1678.25419844 energy=-1678.25419844 pbc="T T T"
Si       2.22377000       1.77587000       7.75375000       1.85764500       2.79084300      -0.93503200
Si       0.43418000       3.52580000       3.18935000       1.25130300      -0.16981500       1.91401100
Si       0.36568000       2.65143000       0.47195000      -2.19834800      -3.36772800       1.28013900
Si       2.61068000       1.44196000       4.48602000       2.87285500       5.87387600       2.74284200
Si       2.70859000       1.31634000      15.35138000       5.04485900       2.79018400       1.21856900
Si       0.18167000       2.98393000      11.64010000      -0.74928400      -5.67882000       1.71733700
Si      -0.10828000       3.16158000       8.83189000      -2.13109100       1.39841700       1.82177900
Si       2.64465000       1.24654000      12.61393000      -2.01712500      -5.51293600      -5.87102200
Si       4.58085000       6.16230000       7.36189000      -3.22794300       1.98751200      -1.56835000
Si       2.02324000       7.48238000       3.08138000       0.41566900       4.83307600       4.16729100
Si       1.92423000       6.85382000       0.28137000       2.11621400       1.08788300       0.30855600
Si       4.42563000       5.68425000       4.00864000       1.32545000       6.20826800       3.39796700
Si       4.90789000       5.91734000      16.09611000      -4.30976400      -6.06135000      -5.27313500
Si       2.37131000       7.06458000      11.80391000       1.64991700       1.21793200      -0.04374400
Si       2.01256000       7.59460000       8.74572000      -1.28571300      -0.20933200      -1.49889800
Si       4.79442000       5.42889000      12.95786000       0.59851500      -0.34953000      -2.21293700
Si       7.91970000      10.24224000       8.07484000      -3.59506600       4.71948300       3.00714000
Si       5.43385000      11.46497000       4.19028000       1.99030600      -1.95625700      -3.68016300
Si       5.14096000      11.03031000       1.08627000      -1.23492600       0.40285400      -3.32809300
Si       7.86400000       9.81046000       5.14733000       1.71883200       3.74230100       1.00556300
Si       7.45792000       9.94865000      14.99385000      -1.44271700       1.88048400       3.09734700
Si       5.28132000      11.31022000      11.21158000      -2.33665800       1.62075900       4.40258300
Si       4.87787000      11.80724000       8.11466000       2.11437400      -3.13164800      -0.04592200
Si       7.61137000       9.61540000      12.06518000       2.18612700      -3.76932200      -2.87546100
Si       6.94190000       1.78963000       8.02635000      -0.26256200      -2.41533200      -2.09079700
Si       4.97083000       2.75771000       3.49421000       2.08222800      -3.94363200       0.60468300
Si       4.97552000       2.87170000       0.54663000       3.26156100      -0.50097500      -1.01398900
Si       7.33513000       1.74048000       4.81295000      -0.22024100       2.21815500       1.46991600
Si       6.90703000       0.87859000      15.28717000      -1.33525200      -0.16736800      -3.64252600
Si       4.69344000       2.83883000      11.52984000       0.61628300      -1.86926300       1.18781900
Si       4.47434000       3.57874000       8.80711000       1.41968400       0.63208700       3.55296200
Si       7.04115000       1.22696000      12.07129000       3.93855900       2.03614000       0.95909700
Si       9.34522000       5.62077000       7.14816000      -0.92874900      -2.58705600       3.22493500
Si       7.25792000       7.35461000       3.42890000      -3.08020400       0.26998000       4.88062700
Si       7.13281000       7.45853000       0.66475000       5.13145100       3.91910700      -2.68256800
Si       9.41658000       5.38447000       4.41230000       3.53767900       0.05451000      -5.23351700
Si       9.38440000       5.44730000      16.00463000      -0.52291600      -3.04518700      -1.90752400
Si       7.53509000       6.45057000      11.46406000      -1.20396400       3.52807300       1.67566000
Si       7.01649000       7.28735000       8.35144000       5.97912500       1.55214700       3.36304000
Si      10.03391000       5.27824000      13.04160000       1.21887700      -2.13186900      -1.89488200
Si      -2.57374000       9.65567000       7.15104000      -4.44755200       0.97778900       0.80942100
Si      -4.97605000      11.45644000       3.27867000      -4.65647200      -0.72087200       1.77114900
Si      -4.73763000      11.32345000       0.24167000      -0.00660500      -0.87543600      -0.91933600
Si      -2.54008000       9.92514000       4.07236000       0.51399900      -0.46441900      -3.46928100
Si      -2.21350000       9.20835000      15.76394000      -3.81518400      -2.27448900      -2.03333300
Si      -4.40101000      11.05915000      11.86962000      -1.38455600       0.28909400       3.10403200
Si      -4.41238000      11.63699000       8.96147000      -4.88220100       1.24181400      -2.78359500
Si      -1.77367000       9.68128000      12.74905000      -0.37103300       1.29107500       0.26795300
Si      12.30158000       1.95343000       7.21837000      -0.09218100       1.15091100      -3.23675100
Si       9.80117000       2.53176000       3.18909000      -3.71520500      -2.27049300      -0.74955900
Si       9.41433000       2.23465000       0.24361000      -2.54979700      -0.31430200      -1.90057600
Si      12.62766000       1.78888000       4.07569000       1.45374500       2.24152100       1.70095000
Si      12.42493000       1.13547000      16.01472000      -1.29410600       0.34908600       1.80160900
Si       9.94653000       2.41814000      11.78306000       4.43938400      -0.86954000       2.26547600
Si       9.78187000       2.85057000       8.79779000       0.56344600      -1.61473100      -2.36310600
Si      12.65494000       1.13381000      12.97310000       2.55619700       1.51478400      -0.42221200
Si      -0.21388000       5.81292000       7.93820000       7.92722600       3.69671300       2.36494500
Si      -2.48877000       6.93988000       3.60045000      -1.89374500      -1.56054500       2.02194100
Si      -2.52332000       6.18706000       1.00604000      -1.87448400      -1.53744800      -7.59688300
Si       0.20245000       6.28997000       4.86064000      -2.82315900      -0.34497200       3.81146100
Si      -0.33660000       4.96997000      15.22949000      -3.48848300       8.25919900      -2.36568800
Si      -2.57224000       6.90997000      11.51459000       4.27417700      -1.57398700      -4.94580700
Si      -2.77609000       6.79949000       8.24068000      -0.34169400       0.07206700       3.12737000
Si       0.03989000       5.77726000      12.33952000      -4.87811500      -3.71969200       0.72258000
Si       2.13674000      10.32169000       7.11274000       6.68578500      -3.78054900       0.59024700
Si      -0.14083000      11.70636000       3.70912000       3.35643300      -4.61157900      -5.46167300
Si      -0.30141000      11.22520000       0.69525000       2.67009600      -4.81284000      -2.72741000
Si       2.63711000      10.24951000       4.22749000      -5.14874900      -0.79939000      -1.45726300
Si       2.67349000       9.84349000      15.81747000      -2.48229100       0.38880400       1.87177500
Si       0.40487000      11.27687000      11.03484000      -0.37394600       1.03748800       0.69538500
Si      -0.25583000      11.31614000       8.01893000       1.89964900       2.46992600       2.39613400
Si       2.72226000      10.10150000      12.74982000       0.85338900       1.19982600      -1.89371800
O       -1.04190000       1.82453000       0.95707000      -0.92816900      -0.66396800      -2.12613000
O        2.24824000       0.01555000       4.21638000      -1.79163000      -4.62578500      -0.81853900
O        1.63632000       2.42753000       3.55180000       1.21263200      -0.31286600       1.08492900
O        1.46065000       1.55907000       0.01939000      -6.18507400       1.83624300       4.10612600
O        2.55130000       1.97540000       6.05834000      -2.43846300      -1.41063500       1.09210000
O        0.74743000       3.71550000       1.61715000       0.27565100       0.74379600       0.42391600
O       -0.95061000       2.74580000       3.41951000       0.32778600       0.27482300       0.26052900
O       -4.29065000      12.62401000      15.55368000       2.27605300      -2.44819800       0.17682500
O       -1.22390000       2.82515000       7.78496000      -0.75246600       0.56059200      -0.48648900
O       -5.01064000      12.32792000      13.07723000       1.10463400      -0.58051500      -4.39177600
O        1.38610000       1.69501000      11.70894000      -1.64957200       2.82808700      -0.68845000
O        0.98610000       2.11045000       8.82851000       4.82279000      -3.59057100      -3.33656100
O        2.57042000       1.88885000      13.95752000      -0.51657800       3.69845300      -0.55826300
O       -0.68023000       2.82961000      10.28406000      -0.69332300       0.98206900       0.57622100
O       -0.94345000       2.35902000      12.68774000      -0.35301800       0.40166300       0.75025600
O        2.71520000       0.42522000       8.36482000       2.21924200      -1.88279200      -0.18851800
O        0.84348000       5.89759000      15.82757000      -0.57041400      -1.26729800      -1.10160900
O        4.43669000       4.18670000       3.86784000      -1.47907100      -2.42972300      -1.26595200
O        3.19974000       6.55349000       3.47011000       0.90453700      -2.40696300      -0.21695200
O        3.37266000       6.04791000       0.41743000      -1.65968100       0.40024200       0.13047100
O        4.41847000       5.94577000       5.66431000       0.41719000      -0.11686500       3.27040300
O        1.30278000       7.18046000       1.76304000      -1.08077200      -0.44647700      -1.82977100
O        0.96930000       7.62122000       4.43408000       0.50432900      -0.64056700      -2.38760900
O        5.33841000       4.39386000       0.33434000       0.69908400       0.89893100       1.05644500
O        0.41110000       7.31073000       8.67491000      -2.57911100      -3.53866400      -0.54582800
O        4.65303000       3.64139000      12.96636000       0.36534000       2.97361000       0.06630100
O        3.41037000       5.84450000      12.11229000       0.66340500       0.67120500       1.91500200
O        3.11084000       6.74825000       7.93361000       0.99595600      -0.49033300      -1.84527600
O        5.14801000       5.97221000      14.44124000      -0.89630600       0.19756200       1.04710300
O        2.32972000       7.09295000      10.21004000       0.50007000       0.31055100       1.72691400
O        1.02357000       6.86905000      12.65023000       2.44513200       2.73870200      -0.37597600
O        4.94496000       5.08031000       8.49658000       0.83943700      -0.55122300      -1.46545800
O        3.82487000       9.93530000       0.91539000       0.89611700       1.42893600      -1.45313100
O        7.39135000       8.36925000       4.89900000      -1.58197100      -3.66496800      -2.28411000
O        6.62285000      10.92235000       5.15005000      -0.31359600       0.10135900      -0.60772300
O        6.29723000      10.59786000      16.05949000      -0.98390000      -0.20175100      -0.65017700
O        8.63499000      10.01544000       6.68935000      -0.52615200      -0.27576400      -4.52622300
O        5.85331000      10.88896000       2.46624000       0.13506700       0.34390300       4.76929300
O        3.95920000      10.97764000       4.41890000       2.48386400       0.90868800       0.66764600
O        7.74311000       8.44245000      15.46146000      -1.74357400      -2.12555800       2.04806200
O        3.78019000      10.96151000       7.25426000      -1.95294800      -0.70951000       0.59073300
O        7.77456000       7.92036000      12.23163000      -0.68754300       0.93134300      -0.96166400
O        6.61757000      10.51366000      11.12582000       2.67700900      -2.65523200      -0.67907600
O        6.32815000      10.99351000       7.95758000       1.83370300      -0.86724500      -0.38396900
O        7.06608000      10.05255000      13.44173000      -0.42242600       1.41316900       3.91870300
O        4.72728000      11.62042000       9.78636000      -1.84069100       1.33859700      -3.28016800
O        4.17586000      10.54006000      12.29745000       3.69676700       1.44071100      -2.96906800
O        7.83704000       8.86805000       8.82805000      -1.59352400      -4.22195900      -1.26442600
O        3.79587000       2.46307000      15.80836000      -3.61261400      -1.03988200      -2.10892800
O        7.04265000       0.20311000       4.45228000      -3.20128500       4.78545200       3.82684100
O        6.58092000       2.93084000       3.91365000      -0.40710900      -1.18178400      -0.43803900
O        6.19296000       1.89272000       0.12074000      -0.48544400       1.81633300       0.71095300
O        6.79570000       2.17845000       6.42738000       1.66258400      -0.14232500      -2.17799700
O        4.64108000       2.24597000       1.93857000      -0.22286600       0.79333900       5.45706200
O        4.52631000       1.48741000       4.54493000      -3.76706700       1.87361500      -2.50514800
O       -0.98230000      12.16505000      15.72434000       0.49355400       1.29980100      -1.59912900
O        3.27787000       3.11717000       7.97527000      -2.71092300      -1.80892600      -0.95021300
O        7.73262000       0.18410000      10.95016000      -2.83166100      -0.79037400       0.66677100
O        6.30808000       2.48782000      11.32478000      -1.01268000      -0.67042300       0.08678100
O        5.75032000       2.55349000       8.81682000       0.31775500      -0.19384300      -0.55521000
O        6.43080000       1.03954000      13.58959000       0.43200300      -0.90224900       0.35263300
O        4.04012000       3.81769000      10.45803000       0.50902600      -0.70385200      -2.46164400
O        3.90365000       1.28298000      11.52893000       1.27098200       2.64003000       1.50250000
O        6.58730000       0.10099000       7.77036000      -0.17686700       0.78501000       1.86276200
O        5.69881000       6.91109000       0.73297000       0.79477000       4.83937200       3.47371300
O        9.57780000       4.05675000       3.53092000      -0.24181000       0.84190800      -2.12343600
O        8.21993000       6.22685000       3.95541000      -2.24007900       0.73463700      -1.48289500
O        7.90393000       6.15588000       0.15507000       2.38533000      -1.75001000       0.22788800
O        9.19462000       4.73857000       5.77211000       0.41860500      -0.01653200       4.94304300
O        7.55204000       8.23901000       2.11133000      -0.60111500      -1.61099900      -1.24047500
O        5.72074000       6.58283000       3.58934000       2.31012100       0.95795300      -1.46682800
O        8.88119000       3.76524000      15.93223000       1.12759100       1.67521400       1.49938400
O        5.58054000       7.37532000       7.88157000      -3.21533900       0.73019800      -2.29961100
O       10.20538000       3.68088000      12.72250000       0.97427000       3.23634200       0.52189200
O        8.83066000       5.56587000      12.04635000      -4.40466800       0.99787200      -1.89974400
O        7.74455000       6.10244000       7.39993000       2.05591900       1.32716800       0.13502700
O       10.30872000       5.55398000      14.56469000      -2.54263100       0.66373700       2.80822200
O        7.24683000       6.87890000       9.89640000       0.51210700      -2.68454800       1.22526300
O        5.96119000       6.37515000      12.07363000      -0.58146200      -3.78684100       0.47221000
O        9.65855000       4.33175000       8.31526000      -0.70467000       4.28171500      -1.28703700
O       -6.02172000      10.76854000      15.59321000      -0.25735900       0.15861400      -0.79198400
O       -2.67210000       8.54224000       3.08110000       0.73680100      -1.87439700       2.03911600
O       -3.60356000      10.89519000       3.29420000       8.01206000      -2.56880100       1.90381900
O       -3.56943000      10.27849000       0.00579000       2.34704700      -3.42235200      -0.62694000
O       -2.99010000       9.71832000       5.57123000      -0.54883500      -0.99391900       1.42321600
O       -5.00103000      11.79594000       1.76196000      -2.02241400       0.91908900      -2.21944700
O       -5.82546000      10.12907000       3.89452000      -0.48927600       1.84218000       0.31031600
O       -2.20879000       7.57858000       0.31068000      -0.71866700       4.07874700      -1.39888500
O       -6.06270000      11.32834000       9.16200000       0.65512300      -1.70085600      -1.92972500
O       -1.96095000       8.33502000      11.86166000      -0.01071900       0.73515600       0.57284100
O       -3.15720000      10.63821000      12.90788000       0.76057800      -1.20758200      -1.94774900
O       -3.82288000      10.51275000       8.01067000       2.78935400      -0.99698400      -1.72693500
O       -1.32824000       9.37853000      14.28386000      -2.26500900      -1.23155900       0.44232300
O       -3.87134000      11.66609000      10.39211000       1.62067200      -0.81352100       4.75977600
O       -5.45806000       9.60626000      11.76057000       1.47878900       4.73549700      -0.06207100
O       -2.42754000       8.34717000       8.02023000       1.10235900      -0.00886400      -1.72761900
O        8.41113000       1.28450000      15.33436000       3.10234800       0.28345000       1.16697300
O       12.66271000       0.24417000       3.89708000       1.40343700      -0.41487900      -0.00175900
O       11.24659000       2.24229000       3.57883000       0.35283100       0.25841700      -2.10960900
O       10.86621000       2.02506000      15.80765000       5.44617800      -1.05795900      -0.40721600
O       12.52114000       2.25212000       5.59787000       0.19098900       0.38019900       1.79532500
O        9.29592000       1.63999000       1.76730000       0.50337100       2.76193000       1.39267400
O        8.86232000       1.74316000       4.25978000      -0.32543700       0.29478800       1.50856500
O        4.46931000      12.62804000       0.86441000       1.64882700      -1.36312300      -0.87709800
O        8.46046000       1.97120000       8.58265000      -2.30591300      -0.20381000       0.01231900
O        5.70302000      12.74607000      11.94756000       0.33155900      -2.25856200      -0.81846100
O       11.19665000       1.52010000      12.53609000      -2.04004100       0.23948200      -0.60250500
O       10.82585000       2.15063000       7.74690000      -0.41383400       0.90453500       0.38536800
O       13.05116000       0.68531000      14.56175000      -1.39082200       0.80447900       0.10554600
O       10.35436000       2.49870000      10.21130000       0.16829600       0.40611000       2.10795200
O        8.61618000       1.92364000      12.33877000      -4.46065600      -1.58499500       0.30501100
O       12.44922000       0.40193000       7.19455000       0.73745600      -2.99301800       1.83467900
O       10.47966000       6.00157000       0.90672000       2.10769100       0.09539400       1.81888300
O        0.69014000       4.95026000       4.10893000      -0.44359500      -1.98436500      -1.62273500
O       -1.54426000       6.45938000       4.94616000       0.77293000       1.20113900      -2.55945800
O       -1.76756000       5.18763000      15.96915000      -1.48354400       0.75668800       2.48079600
O        0.39338000       6.20990000       6.53118000       0.70850900      -1.08555700      -3.47499800
O       -1.92596000       5.85447000       2.38224000       0.16230300       1.37216600       4.37307100
O       10.62023000       6.42052000       4.02552000       2.95807400       0.76308300       0.15596500
O       -0.21404000       3.50517000      15.41069000       1.78883400      -4.74374500      -2.51951300
O       10.61102000       6.68969000       7.32061000      -1.91504600      -1.62450300      -0.50647500
O        0.77730000       4.40619000      11.97437000       1.82824600      -0.57533100      -0.07784900
O       -1.24719000       5.68179000      11.39218000      -2.39640300       3.11612800      -1.30234000
O       -1.69378000       5.53954000       7.89154000      -6.71687600       1.31527400       0.51914000
O       -0.69087000       5.71553000      13.76806000      -0.03409300      -2.02707000       2.73507300
O       -2.98150000       7.07693000       9.88475000      -0.37595500      -1.86389000      -0.14329900
O       -3.64042000       6.33239000      12.40676000      -1.44879000      -0.62278800       1.61725600
O        0.56426000       4.61484000       8.78120000      -0.57167500       1.30534200      -1.40748200
O       -1.16487000       9.85901000       0.45129000       5.01423300       2.71952700       5.33542200
O        2.73427000       9.02148000       3.13348000      -0.99268900      -0.23318400       0.46873900
O        1.49514000      11.53282000       3.84662000       1.29046400      -2.95843600       0.35914800
O        1.26013000      10.56531000       0.29723000      -0.29036300       1.20517100       0.23979000
O        2.20578000       9.57328000       5.66222000      -0.66730100       1.00856300       0.31035100
O       -0.60031000      11.72489000       2.10326000       0.97623100       3.16966300       2.37516500
O       -0.97658000      10.36766000       3.80087000      -2.32268100      -2.32941900       3.44228400
O        2.28165000       8.25120000      15.64000000      -0.10440600      -0.52085300      -0.02723000
O       -1.23015000      10.40897000       7.12859000       3.31986900       1.37190700       0.33868500
O        2.51941000       8.59231000      12.31339000       0.75597600      -0.34557900       0.13218800
O        1.78199000      11.08664000      11.78909000       1.88713200      -1.05637100       1.13711800
O        1.35955000      11.54528000       7.58296000      -3.84202100       2.10777300      -0.24346000
O        2.98566000      10.35240000      14.31607000      -0.89134300       0.26359600       1.37432600
O        0.05410000      10.71129000       9.58957000      -1.26944200       0.34820900      -2.74549900
O       -0.54273000      10.50144000      12.06311000      -1.92206700      -0.34390600       0.83254100
O        1.80883000       9.10034000       8.19330000       1.67959100       1.86150700      -0.59666000
