24
Lattice="7.489176577939865 0.0 0.0 0.0 7.489176577939865 0.0 0.0 0.0 7.489176577939865" Properties=species:S:1:pos:R:3:spacegroup_kinds:I:1:forces:R:3 spacegroup="F d -3 m" unit_cell=conventional occupancy="_JSON {\"0\": {\"Si\": 1.0}, \"1\": {\"O\": 1.0}}" energy=-98.62807777523994 free_energy=-98.62807777523994 stress="-5.1248802488010845e-05 1.9226627405330704e-08 1.7370722226775712e-08 1.9226627405330704e-08 -5.124161650956314e-05 2.2408328549047286e-08 1.7370722226775712e-08 2.2408328549047286e-08 -5.125073008440462e-05" pbc="T T T"
Si       0.93614707       0.93614707       0.93614707        0       0.00000724       0.00000706       0.00000639
Si       4.68073536       0.93614707       4.68073536        0      -0.00001558       0.00001243      -0.00001535
Si       0.93614707       4.68073536       4.68073536        0       0.00001184      -0.00001545      -0.00001499
Si       4.68073536       4.68073536       0.93614707        0      -0.00001529      -0.00001525       0.00001172
Si       6.55302951       2.80844122       2.80844122        0      -0.00000797       0.00000778       0.00000780
Si       6.55302951       6.55302951       6.55302951        0      -0.00000273      -0.00000294      -0.00000270
Si       2.80844122       2.80844122       6.55302951        0       0.00000734       0.00000757      -0.00000780
Si       2.80844122       6.55302951       2.80844122        0       0.00000800      -0.00000752       0.00000783
O       -0.00000000      -0.00000000      -0.00000000        1      -0.00000665      -0.00000676      -0.00000661
O        5.61688243       1.87229414       3.74458829        1       0.00000618       0.00000218      -0.00000373
O        1.87229414       3.74458829       5.61688243        1       0.00000262      -0.00000397       0.00000658
O        3.74458829       5.61688243       1.87229414        1      -0.00000406       0.00000639       0.00000244
O        1.87229414       5.61688243       3.74458829        1       0.00000257       0.00000635      -0.00000389
O        5.61688243       3.74458829       1.87229414        1       0.00000681      -0.00000411       0.00000263
O        3.74458829       1.87229414       5.61688243        1      -0.00000367       0.00000230       0.00000639
O       -0.00000000       3.74458829       3.74458829        1      -0.00000340      -0.00000267      -0.00000277
O        5.61688243       5.61688243      -0.00000000        1       0.00001717       0.00001702      -0.00001552
O        1.87229414      -0.00000000       1.87229414        1      -0.00000494       0.00000272      -0.00000488
O        1.87229414       1.87229414      -0.00000000        1      -0.00000463      -0.00000467       0.00000281
O        5.61688243      -0.00000000       5.61688243        1       0.00001709      -0.00001558       0.00001698
O        3.74458829      -0.00000000       3.74458829        1      -0.00000223      -0.00000316      -0.00000239
O       -0.00000000       5.61688243       5.61688243        1      -0.00001556       0.00001717       0.00001702
O       -0.00000000       1.87229414       1.87229414        1       0.00000262      -0.00000438      -0.00000437
O        3.74458829       3.74458829      -0.00000000        1      -0.00000257      -0.00000275      -0.00000323
