2
Lattice="3.1971460587592726 1.937616220586356e-09 8.715174705825654e-10 -1.5985730277016112 2.768809680896775 1.4290517886941536e-09 1.3403250346332045e-09 3.4232391184476257e-09 5.112312804523309" Properties=species:S:1:pos:R:3:forces:R:3 energy=-14.38900512456894 free_energy=-14.38900512456894 stress="6.941670617906347e-05 4.352850064433861e-09 -4.676628863976797e-10 4.352850064433861e-09 6.945783378452377e-05 1.888003789979293e-09 -4.676628863976797e-10 1.888003789979293e-09 -0.00031946826308640205" pbc="T T T"
Hf      -0.00000000       1.84587312       3.83423462       0.00000003      -0.00000001      -0.00000181
Hf       1.59857303       0.92293656       1.27807818      -0.00000004       0.00000002       0.00000181
